data_1
_audit_creation_date               2023-09-03
_audit_creation_method
;
Olex2 1.5
(compiled 2023.03.06 svn.rbb2c1857 for OlexSys, GUI svn.r6748)
;
_audit_contact_author_address      ?
_audit_contact_author_email        ?
_audit_contact_author_name         ''
_audit_contact_author_phone        ?
_publ_contact_author_id_orcid      ?
_publ_section_references
;
Bourhis, L.J., Dolomanov, O.V., Gildea, R.J., Howard, J.A.K., Puschmann, H.
 (2015). Acta Cryst. A71, 59-75.

Dolomanov, O.V., Bourhis, L.J., Gildea, R.J, Howard, J.A.K. & Puschmann, H.
 (2009), J. Appl. Cryst. 42, 339-341.

Kleemiss, F., Dolomanov, O.V., Bodensteiner, M., Peyerimhoff, N., Midgley, M.,
Bourhis, L.J., Genoni, A., Malaspina, L.A., Jayatilaka, D., Spencer, J.L.,
White, F., Grundkoetter-Stock, B, Steinhauer, S., Lentz, D., Puschmann, H.,
Grabowsky, S. (2021), Chem. Sci., 12, 1675-1692.
;
_chemical_formula_moiety           'C36 H64 N6 Si4'
_chemical_formula_sum              'C36 H64 N6 Si4'
_chemical_formula_weight           693.292
_chemical_absolute_configuration   unk
loop_
  _atom_type_symbol
  _atom_type_scat_dispersion_real
  _atom_type_scat_dispersion_imag
  _atom_type_scat_source
  _atom_type_scat_dispersion_source
 C 0.00347 0.00161 'NoSpherA2: Chem.Sci. 2021, DOI:10.1039/D0SC05526C'
 'Henke, Gullikson and Davis, At. Data and Nucl. Data Tables, 1993, 54, 2'
 H 0.00000 0.00000 'NoSpherA2: Chem.Sci. 2021, DOI:10.1039/D0SC05526C'
 'Henke, Gullikson and Davis, At. Data and Nucl. Data Tables, 1993, 54, 2'
 N 0.00653 0.00323 'NoSpherA2: Chem.Sci. 2021, DOI:10.1039/D0SC05526C'
 'Henke, Gullikson and Davis, At. Data and Nucl. Data Tables, 1993, 54, 2'
 Si 0.08192 0.07060 'NoSpherA2: Chem.Sci. 2021, DOI:10.1039/D0SC05526C'
 'Henke, Gullikson and Davis, At. Data and Nucl. Data Tables, 1993, 54, 2'

_space_group_crystal_system        'monoclinic'
_space_group_IT_number             9
_space_group_name_H-M_alt          'C 1 c 1'
_space_group_name_Hall             ' C -2yc'
loop_
  _space_group_symop_id
  _space_group_symop_operation_xyz
 1 x,y,z
 2 x,-y,z+1/2
 3 x+1/2,y+1/2,z
 4 x+1/2,-y+1/2,z+1/2

_symmetry_Int_Tables_number        9
_cell_length_a                     11.985(2)
_cell_length_b                     22.595(3)
_cell_length_c                     15.218(2)
_cell_angle_alpha                  90
_cell_angle_beta                   94.22(2)
_cell_angle_gamma                  90
_cell_volume                       4109.9(10)
_cell_formula_units_Z              4
_cell_measurement_reflns_used      9989
_cell_measurement_temperature      100(2)
_cell_measurement_theta_max        29.0405
_cell_measurement_theta_min        2.2475
_exptl_absorpt_coefficient_mu      0.176
_exptl_absorpt_correction_T_max    0.7458
_exptl_absorpt_correction_T_min    0.6946
_exptl_absorpt_correction_type     multi-scan
_exptl_absorpt_process_details     SADABS-2016/2
_exptl_crystal_colour              colourless
_exptl_crystal_colour_primary      colourless
_exptl_crystal_density_diffrn      1.120
_exptl_crystal_description         plate
_exptl_crystal_F_000               1513.963
_exptl_crystal_size_max            0.421
_exptl_crystal_size_mid            0.401
_exptl_crystal_size_min            0.222
_diffrn_reflns_av_R_equivalents    0.0345
_diffrn_reflns_av_unetI/netI       0.0200
_diffrn_reflns_Laue_measured_fraction_full  1.0000
_diffrn_reflns_Laue_measured_fraction_max  1.0000
_diffrn_reflns_limit_h_max         16
_diffrn_reflns_limit_h_min         -16
_diffrn_reflns_limit_k_max         30
_diffrn_reflns_limit_k_min         -30
_diffrn_reflns_limit_l_max         20
_diffrn_reflns_limit_l_min         -20
_diffrn_reflns_number              85318
_diffrn_reflns_point_group_measured_fraction_full  1.0000
_diffrn_reflns_point_group_measured_fraction_max  0.9995
_diffrn_reflns_theta_full          25.2417
_diffrn_reflns_theta_max           29.16
_diffrn_reflns_theta_min           1.80
_diffrn_ambient_temperature        100.15
_diffrn_measured_fraction_theta_full  1.0000
_diffrn_measured_fraction_theta_max  1.0000
_diffrn_measurement_device_type    'Bruker Smart APEX II Quazar'
_diffrn_measurement_method         'omega scans'
_diffrn_radiation_type             'Mo K\a'
_diffrn_radiation_wavelength       0.71073
_reflns_Friedel_coverage           0.999
_reflns_limit_h_max                16
_reflns_limit_h_min                -16
_reflns_limit_k_max                30
_reflns_limit_k_min                -30
_reflns_limit_l_max                20
_reflns_limit_l_min                -20
_reflns_number_gt                  10202
_reflns_number_total               11096
_reflns_threshold_expression       I>=2u(I)
_computing_cell_refinement         'SAINT V8.38A'
_computing_data_collection         'APEX2 v2012.2'
_computing_data_reduction          'SAINT V8.38A'
_computing_molecular_graphics      'Olex2 1.5 (Dolomanov et al., 2009)'
_computing_publication_material    'Olex2 1.5 (Dolomanov et al., 2009)'
_computing_structure_refinement    'olex2.refine 1.5 (Bourhis et al., 2015)'
_computing_structure_solution      'SHELXT 2018/2 (Sheldrick, 2018)'
_refine_diff_density_max           0.2304
_refine_diff_density_min           -0.2127
_refine_diff_density_rms           0.0353
_refine_ls_abs_structure_details  
 'Hooft, R.W.W., Straver, L.H., Spek, A.L. (2010). J. Appl. Cryst., 43, 665-668.'
_refine_ls_abs_structure_Flack     -0.01(2)
_refine_ls_d_res_high              0.7294
_refine_ls_d_res_low               11.2975
_refine_ls_goodness_of_fit_ref     1.0470
_refine_ls_hydrogen_treatment      constr
_refine_ls_matrix_type             full
_refine_ls_number_constraints      156
_refine_ls_number_parameters       652
_refine_ls_number_reflns           11096
_refine_ls_number_restraints       1476
_refine_ls_R_factor_all            0.0351
_refine_ls_R_factor_gt             0.0302
_refine_ls_restrained_S_all        0.9801
_refine_ls_shift/su_max            -0.0009
_refine_ls_shift/su_mean           0.0000
_refine_ls_structure_factor_coef   Fsqd
_refine_ls_weighting_details      
 'w=1/[\s^2^(Fo^2^)+(0.0408P)^2^+1.1468P] where P=(Fo^2^+2Fc^2^)/3'
_refine_ls_weighting_scheme        calc
_refine_ls_wR_factor_gt            0.0769
_refine_ls_wR_factor_ref           0.0809
_olex2_refinement_description
;
1. Twinned data refinement
 Scales: 0.84(6)
 0.16(6)
2. Fixed Uiso
 At 1.2 times of:
  All C(H) groups
 At 1.5 times of:
  All C(H,H,H) groups
3. Restrained distances
 N4A-Si2A \\sim N4A-Si2B \\sim N4B-Si2A \\sim N4B-Si2B
 with sigma of 0.02
 N3A-Si2A \\sim N3A-Si2B \\sim N3B-Si2A \\sim N3B-Si2B
 with sigma of 0.02
 N3A-N5A \\sim N3A-N5B \\sim N3B-N5A \\sim N3B-N5B
 with sigma of 0.04
 N4A-N5A \\sim N4A-N5B \\sim N4B-N5A \\sim N4B-N5B
 with sigma of 0.04
 N3A-C30A \\sim N3A-C30B \\sim N3B-C30A \\sim N3B-C30B
 with sigma of 0.04
 N4A-C30A \\sim N4A-C30B \\sim N4B-C30A \\sim N4B-C30B
 with sigma of 0.04
 Si1-Si2A \\sim Si1-Si2B
 with sigma of 0.04
 N5A-C23A \\sim N5A-C24A \\sim N5A-C25A
 with sigma of 0.04
 Si3A-C21A \\sim Si3B-C21B \\sim Si4A-C24A \\sim Si3A-C22A \\sim Si3A-C20A
\\sim Si3B-C20B \\sim Si3B-
 C22B \\sim Si4B-C24B \\sim Si4A-C25A \\sim Si4A-C23A \\sim Si4B-C25B \\sim
Si4B-C23B
 with sigma of 0.02
 C26A-C29A \\sim C26B-C29B \\sim C26B-C27B \\sim C26B-C28B \\sim C26A-C28A
\\sim C26A-C27A
 with sigma of 0.02
 C31B-C36B \\sim C31A-C36A \\sim C31B-C32B \\sim C32B-C33B \\sim C31A-C32A
\\sim C35B-C36B \\sim C35A-
 C36A \\sim C32A-C33A \\sim C34B-C35B \\sim C33B-C34B \\sim C34A-C35A \\sim
C33A-C34A
 with sigma of 0.02
 C16B-C18B \\sim C16A-C18A \\sim C16A-C19A \\sim C16A-C17A \\sim C16B-C19B
\\sim C16B-C17B
 with sigma of 0.02
 N3A-C18A \\sim N3A-C17A \\sim N3A-C19A \\sim N3B-C17B \\sim N3B-C18B \\sim
N3B-C19B
 with sigma of 0.04
 C23A-C24A \\sim C20A-C21A \\sim C20B-C21B \\sim C23B-C24B \\sim C21A-C22A
\\sim C21B-C22B \\sim C20A-
 C22A \\sim C20B-C22B \\sim C23A-C25A \\sim C23B-C25B \\sim C24A-C25A \\sim
C24B-C25B
 with sigma of 0.04
 C27B-C29B \\sim C28B-C29B \\sim C27B-C28B \\sim C27A-C28A \\sim C27A-C29A
\\sim C28A-C29A
 with sigma of 0.04
 N5B-C23B \\sim N5A-C23A \\sim N5A-C25A \\sim N5A-C24A \\sim N5B-C24B \\sim
N5B-C25B
 with sigma of 0.04
 N4A-C22A \\sim N4B-C22B \\sim N4A-C20A \\sim N4A-C21A \\sim N4B-C20B \\sim
N4B-C21B
 with sigma of 0.04
 N6B-C27B \\sim N6B-C29B \\sim N6B-C28B \\sim N6A-C28A \\sim N6A-C27A \\sim
N6A-C29A
 with sigma of 0.04
 C31B-C33B \\sim C31A-C33A \\sim C32B-C34B \\sim C32A-C34A \\sim C34A-C36A
\\sim C31A-C35A \\sim C33B-
 C35B \\sim C33A-C35A \\sim C32B-C36B \\sim C34B-C36B \\sim C31B-C35B \\sim
C32A-C36A
 with sigma of 0.04
 C18B-C19B \\sim C18A-C19A \\sim C17A-C19A \\sim C17B-C19B \\sim C17A-C18A
\\sim C17B-C18B
 with sigma of 0.04
4. Restrained planarity
 C30A, C31A, C32A, C33A, C34A, C35A, C36A
 with sigma of 0.1
 C30B, C31B, C32B, C33B, C34B, C35B, C36B
 with sigma of 0.1
5. Uiso/Uaniso restraints and constraints
N3A \\sim C16A \\sim C17A \\sim C18A \\sim C19A \\sim N4A \\sim Si3A \\sim C20A
\\sim C21A \\sim C22A \\sim N3B \\sim C16B \\sim C17B \\sim C18B \\sim C19B
\\sim N4B \\sim Si3B \\sim C20B \\sim C21B \\sim C22B \\sim Si2A \\sim N5A
\\sim Si4A \\sim C23A \\sim C24A \\sim C25A \\sim N6A \\sim C26A \\sim C27A
\\sim C28A \\sim C29A \\sim C30A \\sim C31A \\sim C32A \\sim C33A \\sim C34A
\\sim C35A \\sim C36A \\sim Si2B \\sim N5B \\sim Si4B \\sim C23B \\sim C24B
\\sim C25B \\sim N6B \\sim C26B \\sim C27B \\sim C28B \\sim C29B \\sim C30B
\\sim C31B \\sim C32B \\sim C33B \\sim C34B \\sim C35B \\sim C36B: within 2A
with sigma of 0.04 and sigma for terminal atoms of 0.08 within 2A
Uanis(N3A) = Uanis(N4B)
Uanis(N3B) = Uanis(N4A)
Uanis(C34A) = Uanis(C34B)
Uanis(C28A) = Uanis(C24B)
6. Rigid body (RIGU) restrains
 N3A, C16A, C17A, C18A, C19A, N4A, Si3A, C20A, C21A, C22A, N3B, C16B, C17B,
 C18B, C19B, N4B, Si3B, C20B, C21B, C22B, Si2A, N5A, Si4A, C23A, C24A, C25A,
 N6A, C26A, C27A, C28A, C29A, C30A, C31A, C32A, C33A, C34A, C35A, C36A, Si2B,
 N5B, Si4B, C23B, C24B, C25B, N6B, C26B, C27B, C28B, C29B, C30B, C31B, C32B,
 C33B, C34B, C35B, C36B
 with sigma for 1-2 distances of 0.004 and sigma for 1-3 distances of 0.004
7. Same fragment restrains
{Si1, N1, N2, N3B, C16B, C17B, C18B, C19B, N4B, Si3B, C20B, C21B, C22B, N3A,
C16A, C17A, C18A, C19A, N4A, Si3A, C20A, C21A, C22A, Si2A, N5A, Si4A, C23A,
C24A, C25A, N6A, C26A, C27A, C28A, C29A, C30A, C31A, C32A, C33A, C34A, C35A,
C36A} sigma for 1-2: 0.02, 1-3: 0.04
as in
{Si1, N1, N2, N3A, C16A, C17A, C18A, C19A, N4A, Si3A, C20A, C21A, C22A, N3B,
C16B, C17B, C18B, C19B, N4B, Si3B, C20B, C21B, C22B, Si2A, N5A, Si4A, C23A,
C24A, C25A, N6A, C26A, C27A, C28A, C29A, C30A, C31A, C32A, C33A, C34A, C35A,
C36A}
8. Others
 Sof(Si2B)=Sof(N5B)=Sof(Si4B)=Sof(C23B)=Sof(H23d)=Sof(H23e)=Sof(H23f)=
 Sof(C24B)=Sof(H24d)=Sof(H24e)=Sof(H24f)=Sof(C25B)=Sof(H25d)=Sof(H25e)=
 Sof(H25f)=Sof(N6B)=Sof(C26B)=Sof(C27B)=Sof(H27d)=Sof(H27e)=Sof(H27f)=Sof(C28B)=
 Sof(H28d)=Sof(H28e)=Sof(H28f)=Sof(C29B)=Sof(H29d)=Sof(H29e)=Sof(H29f)=
 Sof(C30B)=Sof(C31B)=Sof(C32B)=Sof(H32B)=Sof(C33B)=Sof(H33B)=Sof(C34B)=
 Sof(H34B)=Sof(C35B)=Sof(H35B)=Sof(C36B)=Sof(H36B)=1-FVAR(1)
 Sof(Si2A)=Sof(N5A)=Sof(Si4A)=Sof(C23A)=Sof(H23a)=Sof(H23b)=Sof(H23c)=
 Sof(C24A)=Sof(H24a)=Sof(H24b)=Sof(H24c)=Sof(C25A)=Sof(H25a)=Sof(H25b)=
 Sof(H25c)=Sof(N6A)=Sof(C26A)=Sof(C27A)=Sof(H27a)=Sof(H27b)=Sof(H27c)=Sof(C28A)=
 Sof(H28a)=Sof(H28b)=Sof(H28c)=Sof(C29A)=Sof(H29a)=Sof(H29b)=Sof(H29c)=
 Sof(C30A)=Sof(C31A)=Sof(C32A)=Sof(H32A)=Sof(C33A)=Sof(H33A)=Sof(C34A)=
 Sof(H34A)=Sof(C35A)=Sof(H35A)=Sof(C36A)=Sof(H36A)=FVAR(1)
 Sof(N3B)=Sof(C16B)=Sof(C17B)=Sof(H17d)=Sof(H17e)=Sof(H17f)=Sof(C18B)=
 Sof(H18d)=Sof(H18e)=Sof(H18f)=Sof(C19B)=Sof(H19d)=Sof(H19e)=Sof(H19f)=Sof(N4B)=
 Sof(Si3B)=Sof(C20B)=Sof(H20d)=Sof(H20e)=Sof(H20f)=Sof(C21B)=Sof(H21d)=
 Sof(H21e)=Sof(H21f)=Sof(C22B)=Sof(H22d)=Sof(H22e)=Sof(H22f)=1-FVAR(2)
 Sof(N3A)=Sof(C16A)=Sof(C17A)=Sof(H17a)=Sof(H17b)=Sof(H17c)=Sof(C18A)=
 Sof(H18a)=Sof(H18b)=Sof(H18c)=Sof(C19A)=Sof(H19a)=Sof(H19b)=Sof(H19c)=Sof(N4A)=
 Sof(Si3A)=Sof(C20A)=Sof(H20a)=Sof(H20b)=Sof(H20c)=Sof(C21A)=Sof(H21a)=
 Sof(H21b)=Sof(H21c)=Sof(C22A)=Sof(H22a)=Sof(H22b)=Sof(H22c)=FVAR(2)
9.a Me refined with riding coordinates:
 C17A(H17a,H17b,H17c), C18A(H18a,H18b,H18c), C19A(H19a,H19b,H19c), C20A(H20a,
 H20b,H20c), C21A(H21a,H21b,H21c), C22A(H22a,H22b,H22c), C17B(H17d,H17e,H17f),
 C18B(H18d,H18e,H18f), C19B(H19d,H19e,H19f), C20B(H20d,H20e,H20f), C21B(H21d,
 H21e,H21f), C22B(H22d,H22e,H22f), C23A(H23a,H23b,H23c), C24A(H24a,H24b,H24c),
 C25A(H25a,H25b,H25c), C27A(H27a,H27b,H27c), C28A(H28a,H28b,H28c), C29A(H29a,
 H29b,H29c), C23B(H23d,H23e,H23f), C24B(H24d,H24e,H24f), C25B(H25d,H25e,H25f),
 C27B(H27d,H27e,H27f), C28B(H28d,H28e,H28f), C29B(H29d,H29e,H29f)
9.b Aromatic/amide H refined with riding coordinates:
 C3(H3), C4(H4), C5(H5), C6(H6), C7(H7), C32A(H32A), C33A(H33A), C34A(H34A),
 C35A(H35A), C36A(H36A), C32B(H32B), C33B(H33B), C34B(H34B), C35B(H35B),
 C36B(H36B)
9.c Idealised Me refined as rotating group:
 C9(H9a,H9b,H9c), C10(H10a,H10b,H10c), C11(H11a,H11b,H11c), C13(H13a,H13b,
 H13c), C14(H14a,H14b,H14c), C15(H15a,H15b,H15c)
;
loop_
  _atom_site_label
  _atom_site_type_symbol
  _atom_site_fract_x
  _atom_site_fract_y
  _atom_site_fract_z
  _atom_site_U_iso_or_equiv
  _atom_site_adp_type
  _atom_site_occupancy
  _atom_site_refinement_flags_posn
  _atom_site_refinement_flags_adp
  _atom_site_refinement_flags_occupancy
  _atom_site_disorder_group
 C1 C 0.50531(15) 0.40491(4) 0.49391(11) 0.02284(18) Uani 1.000000 . . . .
 C2 C 0.50729(15) 0.47030(4) 0.49109(12) 0.0260(2) Uani 1.000000 . . . .
 C3 C 0.60558(14) 0.50049(7) 0.51634(12) 0.0356(3) Uani 1.000000 . . . .
 H3 H 0.67034(14) 0.47930(7) 0.53800(12) 0.0428(4) Uiso 1.000000 R . . .
 C4 C 0.60858(16) 0.56167(7) 0.50975(15) 0.0523(5) Uani 1.000000 . . . .
 H4 H 0.67605(16) 0.58232(7) 0.52583(15) 0.0627(6) Uiso 1.000000 R . . .
 C5 C 0.5145(2) 0.59258(6) 0.48007(17) 0.0598(6) Uani 1.000000 . . . .
 H5 H 0.5171(2) 0.63449(6) 0.47553(17) 0.0718(7) Uiso 1.000000 R . . .
 C6 C 0.41548(16) 0.56255(7) 0.45669(15) 0.0533(5) Uani 1.000000 . . . .
 H6 H 0.35023(16) 0.58410(7) 0.43722(15) 0.0640(6) Uiso 1.000000 R . . .
 C7 C 0.41138(14) 0.50118(7) 0.46163(13) 0.0374(3) Uani 1.000000 . . . .
 H7 H 0.34395(14) 0.48061(7) 0.44510(13) 0.0448(4) Uiso 1.000000 R . . .
 C8 C 0.52314(14) 0.37940(6) 0.32953(10) 0.0265(3) Uani 1.000000 . . . .
 C9 C 0.40988(16) 0.39459(9) 0.28408(12) 0.0414(4) Uani 1.000000 . . . .
 H9a H 0.3570(3) 0.3625(3) 0.2934(8) 0.0621(6) Uiso 1.000000 GR . . .
 H9b H 0.3823(5) 0.4314(3) 0.3087(6) 0.0621(6) Uiso 1.000000 GR . . .
 H9c H 0.4171(3) 0.3997(6) 0.22080(18) 0.0621(6) Uiso 1.000000 GR . . .
 C10 C 0.60730(16) 0.42811(8) 0.31385(12) 0.0417(4) Uani 1.000000 . . . .
 H10a H 0.6779(4) 0.4198(3) 0.3483(7) 0.0626(6) Uiso 1.000000 GR . . .
 H10b H 0.6205(9) 0.4296(4) 0.25110(18) 0.0626(6) Uiso 1.000000 GR . . .
 H10c H 0.5777(5) 0.46626(11) 0.3320(8) 0.0626(6) Uiso 1.000000 GR . . .
 C11 C 0.56439(17) 0.32127(7) 0.29269(11) 0.0392(4) Uani 1.000000 . . . .
 H11a H 0.6392(5) 0.3124(3) 0.3198(6) 0.0588(6) Uiso 1.000000 GR . . .
 H11b H 0.5129(6) 0.28932(12) 0.3059(7) 0.0588(6) Uiso 1.000000 GR . . .
 H11c H 0.5676(10) 0.3247(2) 0.22874(16) 0.0588(6) Uiso 1.000000 GR . . .
 C12 C 0.48592(14) 0.38476(6) 0.65897(10) 0.0276(3) Uani 1.000000 . . . .
 C13 C 0.44460(18) 0.32823(7) 0.70099(11) 0.0432(4) Uani 1.000000 . . . .
 H13a H 0.4958(6) 0.29562(15) 0.6904(8) 0.0647(6) Uiso 1.000000 GR . . .
 H13b H 0.4419(11) 0.3342(2) 0.76458(17) 0.0647(6) Uiso 1.000000 GR . . .
 H13c H 0.3696(5) 0.3186(3) 0.6750(6) 0.0647(6) Uiso 1.000000 GR . . .
 C14 C 0.40403(17) 0.43512(8) 0.67081(12) 0.0429(4) Uani 1.000000 . . . .
 H14a H 0.4325(6) 0.47147(15) 0.6454(8) 0.0644(6) Uiso 1.000000 GR . . .
 H14b H 0.3312(3) 0.4252(3) 0.6409(8) 0.0644(6) Uiso 1.000000 GR . . .
 H14c H 0.3956(9) 0.4411(4) 0.73375(13) 0.0644(6) Uiso 1.000000 GR . . .
 C15 C 0.60104(16) 0.40052(9) 0.70320(12) 0.0441(4) Uani 1.000000 . . . .
 H15a H 0.6301(5) 0.4357(4) 0.6749(6) 0.0662(6) Uiso 1.000000 GR . . .
 H15b H 0.5942(3) 0.4087(6) 0.7658(2) 0.0662(6) Uiso 1.000000 GR . . .
 H15c H 0.6525(4) 0.3673(3) 0.6972(8) 0.0662(6) Uiso 1.000000 GR . . .
 Si1 Si 0.50275(7) 0.305058(11) 0.49680(5) 0.02436(7) Uani 1.000000 D . . .
 N1 N 0.51244(11) 0.36831(5) 0.42525(8) 0.0244(2) Uani 1.000000 D . . .
 N2 N 0.49603(11) 0.37071(5) 0.56496(8) 0.0252(2) Uani 1.000000 D . . .
 N3A N 0.6108(6) 0.2531(4) 0.5143(9) 0.0241(6) Uani 0.519(3) D U P 1
 C16A C 0.7354(9) 0.2540(5) 0.5309(7) 0.0255(17) Uani 0.519(3) D U P 1
 C17A C 0.7678(7) 0.2317(3) 0.6265(4) 0.0540(16) Uani 0.519(3) D U P 1
 H17a H 0.8494(7) 0.2323(3) 0.6376(4) 0.081(2) Uiso 0.519(3) R . P 1
 H17b H 0.7341(7) 0.2577(3) 0.6689(4) 0.081(2) Uiso 0.519(3) R . P 1
 H17c H 0.7403(7) 0.1912(3) 0.6331(4) 0.081(2) Uiso 0.519(3) R . P 1
 C18A C 0.7853(4) 0.2142(2) 0.4627(4) 0.0612(15) Uani 0.519(3) D U P 1
 H18a H 0.8670(4) 0.2142(2) 0.4725(4) 0.092(2) Uiso 0.519(3) R . P 1
 H18b H 0.7572(4) 0.1737(2) 0.4686(4) 0.092(2) Uiso 0.519(3) R . P 1
 H18c H 0.7636(4) 0.2290(2) 0.4034(4) 0.092(2) Uiso 0.519(3) R . P 1
 C19A C 0.7833(8) 0.3155(3) 0.5209(6) 0.0363(15) Uani 0.519(3) D U P 1
 H19a H 0.8649(8) 0.3141(3) 0.5322(6) 0.054(2) Uiso 0.519(3) R . P 1
 H19b H 0.7645(8) 0.3298(3) 0.4608(6) 0.054(2) Uiso 0.519(3) R . P 1
 H19c H 0.7517(8) 0.3423(3) 0.5631(6) 0.054(2) Uiso 0.519(3) R . P 1
 N4A N 0.4068(6) 0.2559(4) 0.4897(9) 0.0244(6) Uani 0.519(3) D U P 1
 Si3A Si 0.2652(2) 0.25392(13) 0.47926(18) 0.0203(4) Uani 0.519(3) D U P 1
 C20A C 0.2184(7) 0.2146(3) 0.3790(4) 0.0325(10) Uani 0.519(3) D U P 1
 H20a H 0.1365(7) 0.2136(3) 0.3732(4) 0.0488(15) Uiso 0.519(3) R . P 1
 H20b H 0.2459(7) 0.2351(3) 0.3281(4) 0.0488(15) Uiso 0.519(3) R . P 1
 H20c H 0.2476(7) 0.1741(3) 0.3817(4) 0.0488(15) Uiso 0.519(3) R . P 1
 C21A C 0.2105(5) 0.2153(3) 0.5738(3) 0.0288(9) Uani 0.519(3) D U P 1
 H21a H 0.1286(5) 0.2146(3) 0.5667(3) 0.0433(13) Uiso 0.519(3) R . P 1
 H21b H 0.2391(5) 0.1747(3) 0.5766(3) 0.0433(13) Uiso 0.519(3) R . P 1
 H21c H 0.2347(5) 0.2362(3) 0.6283(3) 0.0433(13) Uiso 0.519(3) R . P 1
 C22A C 0.2170(8) 0.3318(3) 0.4767(5) 0.0318(13) Uani 0.519(3) D U P 1
 H22a H 0.1350(8) 0.3328(3) 0.4707(5) 0.048(2) Uiso 0.519(3) R . P 1
 H22b H 0.2438(8) 0.3516(3) 0.5316(5) 0.048(2) Uiso 0.519(3) R . P 1
 H22c H 0.2465(8) 0.3522(3) 0.4266(5) 0.048(2) Uiso 0.519(3) R . P 1
 N3B N 0.3932(7) 0.2538(4) 0.4878(10) 0.0244(6) Uani 0.481(3) D U P 2
 C16B C 0.2705(11) 0.2558(5) 0.4729(8) 0.031(2) Uani 0.481(3) D U P 2
 C17B C 0.2310(10) 0.2264(5) 0.3827(6) 0.058(2) Uani 0.481(3) D U P 2
 H17d H 0.1492(10) 0.2282(5) 0.3741(6) 0.087(4) Uiso 0.481(3) R . P 2
 H17e H 0.2638(10) 0.2477(5) 0.3347(6) 0.087(4) Uiso 0.481(3) R . P 2
 H17f H 0.2553(10) 0.1850(5) 0.3827(6) 0.087(4) Uiso 0.481(3) R . P 2
 C18B C 0.2188(6) 0.2221(3) 0.5494(5) 0.0435(15) Uani 0.481(3) D U P 2
 H18d H 0.1370(6) 0.2230(3) 0.5404(5) 0.065(2) Uiso 0.481(3) R . P 2
 H18e H 0.2446(6) 0.1809(3) 0.5504(5) 0.065(2) Uiso 0.481(3) R . P 2
 H18f H 0.2423(6) 0.2411(3) 0.6056(5) 0.065(2) Uiso 0.481(3) R . P 2
 C19B C 0.2222(8) 0.3198(3) 0.4700(7) 0.0334(15) Uani 0.481(3) D U P 2
 H19d H 0.1405(8) 0.3182(3) 0.4600(7) 0.050(2) Uiso 0.481(3) R . P 2
 H19e H 0.2424(8) 0.3397(3) 0.5262(7) 0.050(2) Uiso 0.481(3) R . P 2
 H19f H 0.2533(8) 0.3420(3) 0.4221(7) 0.050(2) Uiso 0.481(3) R . P 2
 N4B N 0.5957(7) 0.2555(4) 0.5110(10) 0.0241(6) Uani 0.481(3) D U P 2
 Si3B Si 0.7367(3) 0.25345(14) 0.5177(2) 0.0244(5) Uani 0.481(3) D U P 2
 C20B C 0.7877(7) 0.2143(3) 0.6173(4) 0.0420(13) Uani 0.481(3) D U P 2
 H20d H 0.8697(7) 0.2132(3) 0.6210(4) 0.063(2) Uiso 0.481(3) R . P 2
 H20e H 0.7625(7) 0.2348(3) 0.6690(4) 0.063(2) Uiso 0.481(3) R . P 2
 H20f H 0.7584(7) 0.1738(3) 0.6155(4) 0.063(2) Uiso 0.481(3) R . P 2
 C21B C 0.7891(4) 0.21242(18) 0.4234(3) 0.0327(9) Uani 0.481(3) D U P 2
 H21d H 0.8711(4) 0.21189(18) 0.4289(3) 0.0490(13) Uiso 0.481(3) R . P 2
 H21e H 0.7608(4) 0.17172(18) 0.4232(3) 0.0490(13) Uiso 0.481(3) R . P 2
 H21f H 0.7632(4) 0.23200(18) 0.3681(3) 0.0490(13) Uiso 0.481(3) R . P 2
 C22B C 0.7879(7) 0.3298(3) 0.5167(5) 0.0279(12) Uani 0.481(3) D U P 2
 H22d H 0.8699(7) 0.3297(3) 0.5205(5) 0.0418(17) Uiso 0.481(3) R . P 2
 H22e H 0.7597(7) 0.3491(3) 0.4618(5) 0.0418(17) Uiso 0.481(3) R . P 2
 H22f H 0.7616(7) 0.3513(3) 0.5670(5) 0.0418(17) Uiso 0.481(3) R . P 2
 Si2A Si 0.49801(7) 0.19654(2) 0.52301(6) 0.02347(14) Uani 0.7683(16) D U P 1
 N5A N 0.4889(2) 0.16312(10) 0.61484(15) 0.0325(5) Uani 0.7683(16) D U P 1
 Si4A Si 0.47439(10) 0.12382(4) 0.70431(7) 0.02442(17) Uani 0.7683(16) D U P 1
 C23A C 0.37594(19) 0.05961(10) 0.68648(15) 0.0330(4) Uani 0.7683(16) D U P 1
 H23a H 0.37113(19) 0.03818(10) 0.74206(15) 0.0495(7) Uiso 0.7683(16) R . P 1
 H23b H 0.30159(19) 0.07420(10) 0.66581(15) 0.0495(7) Uiso 0.7683(16) R . P 1
 H23c H 0.40371(19) 0.03292(10) 0.64224(15) 0.0495(7) Uiso 0.7683(16) R . P 1
 C24A C 0.4171(6) 0.1684(2) 0.7943(4) 0.0395(11) Uani 0.7683(16) D U P 1
 H24a H 0.4100(6) 0.1432(2) 0.8460(4) 0.0593(16) Uiso 0.7683(16) R . P 1
 H24b H 0.4679(6) 0.2013(2) 0.8101(4) 0.0593(16) Uiso 0.7683(16) R . P 1
 H24c H 0.3434(6) 0.1840(2) 0.7739(4) 0.0593(16) Uiso 0.7683(16) R . P 1
 C25A C 0.6112(3) 0.09265(15) 0.7517(2) 0.0395(6) Uani 0.7683(16) D U P 1
 H25a H 0.5987(3) 0.06964(15) 0.8047(2) 0.0593(9) Uiso 0.7683(16) R . P 1
 H25b H 0.6429(3) 0.06693(15) 0.7080(2) 0.0593(9) Uiso 0.7683(16) R . P 1
 H25c H 0.6632(3) 0.12510(15) 0.7670(2) 0.0593(9) Uiso 0.7683(16) R . P 1
 N6A N 0.51799(19) 0.16398(8) 0.35007(13) 0.0247(4) Uani 0.7683(16) D U P 1
 C26A C 0.5315(5) 0.1294(2) 0.2673(3) 0.0290(8) Uani 0.7683(16) D U P 1
 C27A C 0.6068(2) 0.07422(11) 0.27843(14) 0.0355(5) Uani 0.7683(16) D U P 1
 H27a H 0.6106(2) 0.05462(11) 0.22128(14) 0.0532(7) Uiso 0.7683(16) R . P 1
 H27b H 0.6822(2) 0.08613(11) 0.30101(14) 0.0532(7) Uiso 0.7683(16) R . P 1
 H27c H 0.5755(2) 0.04681(11) 0.32006(14) 0.0532(7) Uiso 0.7683(16) R . P 1
 C28A C 0.5852(10) 0.1712(5) 0.2048(7) 0.0443(11) Uani 0.7683(16) D U P 1
 H28a H 0.5959(10) 0.1507(5) 0.1494(7) 0.0664(17) Uiso 0.7683(16) R . P 1
 H28b H 0.5364(10) 0.2056(5) 0.1931(7) 0.0664(17) Uiso 0.7683(16) R . P 1
 H28c H 0.6578(10) 0.1844(5) 0.2316(7) 0.0664(17) Uiso 0.7683(16) R . P 1
 C29A C 0.4150(3) 0.11227(12) 0.22779(17) 0.0360(5) Uani 0.7683(16) D U P 1
 H29a H 0.4218(3) 0.08958(12) 0.17356(17) 0.0540(8) Uiso 0.7683(16) R . P 1
 H29b H 0.3774(3) 0.08809(12) 0.27017(17) 0.0540(8) Uiso 0.7683(16) R . P 1
 H29c H 0.3712(3) 0.14817(12) 0.21432(17) 0.0540(8) Uiso 0.7683(16) R . P 1
 C30A C 0.50795(15) 0.14223(7) 0.42705(13) 0.0208(3) Uani 0.7683(16) D U P 1
 C31A C 0.50554(15) 0.07778(7) 0.45154(11) 0.0192(3) Uani 0.7683(16) D U P 1
 C32A C 0.59697(16) 0.05240(8) 0.49949(12) 0.0261(4) Uani 0.7683(16) D U P 1
 H32A H 0.65929(16) 0.07658(8) 0.51765(12) 0.0313(4) Uiso 0.7683(16) R . P 1
 C33A C 0.5994(4) -0.00757(16) 0.5215(3) 0.0310(7) Uani 0.7683(16) D U P 1
 H33A H 0.6640(4) -0.02417(16) 0.5521(3) 0.0371(8) Uiso 0.7683(16) R . P 1
 C34A C 0.5073(6) -0.0427(3) 0.4986(5) 0.0329(6) Uani 0.7683(16) D U P 1
 H34A H 0.5086(6) -0.0837(3) 0.5122(5) 0.0395(7) Uiso 0.7683(16) R . P 1
 C35A C 0.4117(2) -0.01694(12) 0.45505(19) 0.0268(5) Uani 0.7683(16) D U P 1
 H35A H 0.3471(2) -0.04044(12) 0.44118(19) 0.0321(6) Uiso 0.7683(16) R . P 1
 C36A C 0.41105(15) 0.04265(7) 0.43210(12) 0.0242(4) Uani 0.7683(16) D U P 1
 H36A H 0.34584(15) 0.05959(7) 0.40298(12) 0.0290(4) Uiso 0.7683(16) R . P 1
 Si2B Si 0.50728(17) 0.19675(7) 0.47226(16) 0.0249(5) Uani 0.2317(16) D U P 2
 N5B N 0.5132(8) 0.1620(4) 0.3810(5) 0.0343(19) Uani 0.2317(16) D U P 2
 Si4B Si 0.5284(4) 0.1240(2) 0.2899(2) 0.0262(7) Uani 0.2317(16) D U P 2
 C23B C 0.6355(8) 0.0608(5) 0.3096(6) 0.054(2) Uani 0.2317(16) D U P 2
 H23d H 0.6425(8) 0.0392(5) 0.2545(6) 0.081(4) Uiso 0.2317(16) R . P 2
 H23e H 0.7083(8) 0.0773(5) 0.3302(6) 0.081(4) Uiso 0.2317(16) R . P 2
 H23f H 0.6100(8) 0.0337(5) 0.3543(6) 0.081(4) Uiso 0.2317(16) R . P 2
 C24B C 0.572(3) 0.1736(16) 0.202(2) 0.0443(11) Uani 0.2317(16) D U P 2
 H24d H 0.581(3) 0.1506(16) 0.148(2) 0.0664(17) Uiso 0.2317(16) R . P 2
 H24e H 0.515(3) 0.2042(16) 0.190(2) 0.0664(17) Uiso 0.2317(16) R . P 2
 H24f H 0.643(3) 0.1924(16) 0.221(2) 0.0664(17) Uiso 0.2317(16) R . P 2
 C25B C 0.3948(9) 0.0898(5) 0.2436(7) 0.052(3) Uani 0.2317(16) D U P 2
 H25d H 0.4083(9) 0.0679(5) 0.1898(7) 0.078(4) Uiso 0.2317(16) R . P 2
 H25e H 0.3665(9) 0.0627(5) 0.2870(7) 0.078(4) Uiso 0.2317(16) R . P 2
 H25f H 0.3394(9) 0.1210(5) 0.2296(7) 0.078(4) Uiso 0.2317(16) R . P 2
 N6B N 0.4878(7) 0.1648(4) 0.6450(5) 0.0315(17) Uani 0.2317(16) D U P 2
 C26B C 0.4774(11) 0.1321(6) 0.7241(9) 0.032(2) Uani 0.2317(16) D U P 2
 C27B C 0.3993(9) 0.0781(4) 0.7153(6) 0.051(2) Uani 0.2317(16) D U P 2
 H27d H 0.3975(9) 0.0586(4) 0.7726(6) 0.077(3) Uiso 0.2317(16) R . P 2
 H27e H 0.3237(9) 0.0911(4) 0.6951(6) 0.077(3) Uiso 0.2317(16) R . P 2
 H27f H 0.4270(9) 0.0503(4) 0.6725(6) 0.077(3) Uiso 0.2317(16) R . P 2
 C28B C 0.428(2) 0.1770(9) 0.7904(14) 0.048(4) Uani 0.2317(16) D U P 2
 H28d H 0.419(2) 0.1570(9) 0.8466(14) 0.071(5) Uiso 0.2317(16) R . P 2
 H28e H 0.479(2) 0.2105(9) 0.8003(14) 0.071(5) Uiso 0.2317(16) R . P 2
 H28f H 0.355(2) 0.1914(9) 0.7658(14) 0.071(5) Uiso 0.2317(16) R . P 2
 C29B C 0.5902(9) 0.1131(5) 0.7655(7) 0.047(2) Uani 0.2317(16) D U P 2
 H29d H 0.5800(9) 0.0908(5) 0.8195(7) 0.070(4) Uiso 0.2317(16) R . P 2
 H29e H 0.6276(9) 0.0880(5) 0.7241(7) 0.070(4) Uiso 0.2317(16) R . P 2
 H29f H 0.6361(9) 0.1482(5) 0.7797(7) 0.070(4) Uiso 0.2317(16) R . P 2
 C30B C 0.4970(5) 0.1430(3) 0.5686(4) 0.0239(12) Uani 0.2317(16) D U P 2
 C31B C 0.5029(5) 0.0781(2) 0.5425(3) 0.0208(11) Uani 0.2317(16) D U P 2
 C32B C 0.5961(5) 0.0428(3) 0.5615(4) 0.0274(12) Uani 0.2317(16) D U P 2
 H32B H 0.6625(5) 0.0582(3) 0.5909(4) 0.0328(15) Uiso 0.2317(16) R . P 2
 C33B C 0.5882(14) -0.0166(6) 0.5356(11) 0.041(3) Uani 0.2317(16) D U P 2
 H33B H 0.6500(14) -0.0416(6) 0.5516(11) 0.049(4) Uiso 0.2317(16) R . P 2
 C34B C 0.4990(17) -0.0409(9) 0.4893(18) 0.0329(6) Uani 0.2317(16) D U P 2
 H34B H 0.4986(17) -0.0811(9) 0.4711(18) 0.0395(7) Uiso 0.2317(16) R . P 2
 C35B C 0.4095(12) -0.0044(5) 0.4704(8) 0.053(4) Uani 0.2317(16) D U P 2
 H35B H 0.3446(12) -0.0196(5) 0.4386(8) 0.064(4) Uiso 0.2317(16) R . P 2
 C36B C 0.4116(5) 0.0527(3) 0.4959(4) 0.0259(12) Uani 0.2317(16) D U P 2
 H36B H 0.3476(5) 0.0766(3) 0.4813(4) 0.0310(14) Uiso 0.2317(16) R . P 2

loop_
  _atom_site_aniso_label
  _atom_site_aniso_U_11
  _atom_site_aniso_U_22
  _atom_site_aniso_U_33
  _atom_site_aniso_U_12
  _atom_site_aniso_U_13
  _atom_site_aniso_U_23
 C1 0.0281(4) 0.0146(4) 0.0252(5) 0.0008(6) -0.0021(3) 0.0000(6)
 C2 0.0257(5) 0.0143(4) 0.0370(6) 0.0015(6) -0.0040(4) 0.0002(6)
 C3 0.0298(7) 0.0198(6) 0.0553(9) 0.0000(5) -0.0107(6) -0.0004(6)
 C4 0.0459(9) 0.0204(7) 0.0869(13) -0.0101(6) -0.0196(9) -0.0015(8)
 C5 0.0616(11) 0.0133(5) 0.1011(16) -0.0017(7) -0.0168(10) 0.0019(8)
 C6 0.0454(10) 0.0208(7) 0.0904(14) 0.0120(6) -0.0174(9) 0.0020(8)
 C7 0.0291(7) 0.0193(6) 0.0617(10) 0.0026(5) -0.0103(7) 0.0007(6)
 C8 0.0341(7) 0.0230(6) 0.0221(6) -0.0032(5) -0.0000(5) 0.0039(5)
 C9 0.0420(9) 0.0502(10) 0.0312(8) -0.0013(7) -0.0028(7) 0.0049(7)
 C10 0.0505(10) 0.0429(9) 0.0322(8) -0.0169(7) 0.0055(7) 0.0068(7)
 C11 0.0623(11) 0.0354(7) 0.0204(7) 0.0044(7) 0.0065(7) 0.0019(6)
 C12 0.0360(8) 0.0232(6) 0.0233(6) 0.0022(5) 0.0002(5) -0.0075(5)
 C13 0.0750(13) 0.0344(8) 0.0209(7) -0.0075(8) 0.0087(7) -0.0050(6)
 C14 0.0533(10) 0.0408(8) 0.0351(8) 0.0146(8) 0.0056(7) -0.0096(7)
 C15 0.0466(10) 0.0550(10) 0.0292(8) -0.0030(8) -0.0078(7) -0.0103(7)
 Si1 0.04309(16) 0.01326(11) 0.01707(12) -0.00046(17) 0.00451(11) -0.00070(15)
 N1 0.0353(6) 0.0168(5) 0.0209(5) -0.0003(4) 0.0010(4) 0.0021(4)
 N2 0.0392(7) 0.0150(5) 0.0213(5) -0.0001(4) 0.0014(5) -0.0031(4)
 N3A 0.0341(16) 0.0144(7) 0.0235(9) 0.0025(9) 0.0004(13) 0.0015(6)
 C16A 0.022(2) 0.019(2) 0.035(4) 0.0033(12) -0.0007(16) 0.0029(17)
 C17A 0.048(3) 0.049(4) 0.061(3) -0.017(2) -0.0180(19) 0.026(2)
 C18A 0.0344(19) 0.040(2) 0.110(4) -0.0022(14) 0.013(2) -0.034(2)
 C19A 0.039(2) 0.038(3) 0.031(2) -0.0013(18) -0.0001(15) -0.0008(19)
 N4A 0.0350(15) 0.0152(7) 0.0229(7) -0.0027(9) 0.0006(13) -0.0018(6)
 Si3A 0.0246(7) 0.0187(8) 0.0171(6) -0.0000(4) -0.0009(4) -0.0027(4)
 C20A 0.031(2) 0.034(3) 0.032(2) 0.0008(16) 0.0014(14) -0.0023(15)
 C21A 0.0328(19) 0.0236(19) 0.030(2) -0.0044(13) 0.0027(14) -0.0059(13)
 C22A 0.037(2) 0.035(3) 0.0232(19) 0.0039(19) -0.0013(15) 0.0002(18)
 N3B 0.0350(15) 0.0152(7) 0.0229(7) -0.0027(9) 0.0006(13) -0.0018(6)
 C16B 0.035(4) 0.022(3) 0.036(4) -0.0020(16) -0.0013(18) -0.0039(19)
 C17B 0.054(4) 0.055(5) 0.064(3) 0.006(3) -0.006(2) -0.026(2)
 C18B 0.038(2) 0.030(2) 0.062(4) -0.0089(14) -0.000(2) 0.003(2)
 C19B 0.033(3) 0.027(3) 0.041(3) -0.0061(16) 0.0049(18) 0.0003(18)
 N4B 0.0341(16) 0.0144(7) 0.0235(9) 0.0025(9) 0.0004(13) 0.0015(6)
 Si3B 0.0302(8) 0.0203(7) 0.0217(7) -0.0008(4) -0.0044(5) 0.0037(5)
 C20B 0.043(3) 0.042(3) 0.040(2) -0.002(2) 0.0006(16) 0.0134(17)
 C21B 0.039(2) 0.0227(15) 0.0357(19) 0.0075(12) -0.0025(15) 0.0000(13)
 C22B 0.034(2) 0.030(3) 0.019(2) 0.0043(17) -0.0011(15) -0.0064(17)
 Si2A 0.0440(3) 0.0143(2) 0.0128(3) -0.00086(18) 0.00693(18) -0.00060(19)
 N5A 0.0594(13) 0.0210(8) 0.0183(11) 0.0014(7) 0.0105(9) 0.0023(8)
 Si4A 0.0353(3) 0.0222(3) 0.0159(4) -0.0008(2) 0.0031(3) 0.0026(3)
 C23A 0.0370(11) 0.0312(10) 0.0316(11) -0.0047(8) 0.0073(8) 0.0072(8)
 C24A 0.066(3) 0.0337(14) 0.0207(13) 0.0074(17) 0.0156(13) 0.0034(10)
 C25A 0.0426(14) 0.0473(18) 0.0279(12) -0.0051(11) -0.0023(9) 0.0091(11)
 N6A 0.0438(10) 0.0170(7) 0.0137(9) 0.0019(6) 0.0046(7) 0.0016(7)
 C26A 0.0429(14) 0.0288(13) 0.0159(19) 0.0027(8) 0.0064(12) -0.0018(12)
 C27A 0.0425(12) 0.0398(11) 0.0245(11) 0.0096(8) 0.0053(9) -0.0115(8)
 C28A 0.070(3) 0.0438(13) 0.0213(10) -0.0082(17) 0.0151(15) -0.0027(7)
 C29A 0.0527(13) 0.0361(14) 0.0184(10) 0.0043(9) -0.0037(8) -0.0055(9)
 C30A 0.0322(9) 0.0148(7) 0.0156(8) -0.0002(5) 0.0036(6) 0.0005(5)
 C31A 0.0239(8) 0.0152(7) 0.0186(7) 0.0001(5) 0.0008(5) -0.0011(5)
 C32A 0.0267(9) 0.0237(8) 0.0275(9) -0.0004(6) -0.0015(6) 0.0029(6)
 C33A 0.0349(14) 0.0253(12) 0.0328(13) 0.0081(10) 0.0031(10) 0.0053(10)
 C34A 0.0512(12) 0.0159(6) 0.0320(19) 0.0030(8) 0.0056(8) 0.0029(9)
 C35A 0.0313(11) 0.0181(10) 0.0315(10) -0.0082(8) 0.0056(8) -0.0019(9)
 C36A 0.0249(8) 0.0200(8) 0.0273(9) -0.0004(6) -0.0006(6) -0.0012(6)
 Si2B 0.0442(10) 0.0153(8) 0.0152(11) -0.0019(6) 0.0017(6) -0.0020(6)
 N5B 0.061(4) 0.029(3) 0.014(3) 0.001(2) 0.004(2) -0.0035(19)
 Si4B 0.0386(12) 0.0283(13) 0.0116(16) 0.0007(9) 0.0002(11) -0.0075(11)
 C23B 0.058(5) 0.074(6) 0.029(4) 0.022(3) -0.004(3) -0.004(3)
 C24B 0.070(3) 0.0438(13) 0.0213(10) -0.0082(17) 0.0151(15) -0.0027(7)
 C25B 0.058(5) 0.065(7) 0.032(5) 0.002(3) -0.011(3) -0.026(4)
 N6B 0.043(3) 0.030(3) 0.021(3) -0.0007(19) 0.0029(19) -0.0066(17)
 C26B 0.038(4) 0.032(4) 0.025(4) -0.013(2) -0.002(2) -0.000(2)
 C27B 0.075(5) 0.050(4) 0.028(4) -0.030(3) 0.002(3) -0.001(3)
 C28B 0.056(5) 0.056(7) 0.032(6) -0.021(3) 0.007(3) -0.006(3)
 C29B 0.051(4) 0.055(6) 0.033(4) -0.016(3) -0.004(3) 0.008(3)
 C30B 0.038(3) 0.018(2) 0.015(2) -0.0014(15) -0.0018(16) 0.0014(13)
 C31B 0.030(3) 0.018(2) 0.014(2) 0.0008(14) -0.0029(16) 0.0029(14)
 C32B 0.034(3) 0.029(3) 0.019(3) 0.0033(17) -0.0007(18) 0.0050(18)
 C33B 0.045(6) 0.026(4) 0.052(8) 0.005(3) 0.008(4) -0.001(3)
 C34B 0.0512(12) 0.0159(6) 0.0320(19) 0.0030(8) 0.0056(8) 0.0029(9)
 C35B 0.061(6) 0.030(4) 0.067(7) -0.008(3) -0.001(4) -0.018(3)
 C36B 0.029(3) 0.025(3) 0.022(3) 0.0001(16) -0.0051(17) -0.0044(18)

loop_
  _geom_bond_atom_site_label_1
  _geom_bond_atom_site_label_2
  _geom_bond_distance
  _geom_bond_site_symmetry_2
  _geom_bond_publ_flag
 C1 C2 1.4783(13) . ?
 C1 Si1 2.2569(10) . ?
 C1 N1 1.3403(17) . ?
 C1 N2 1.3403(18) . ?
 C2 C3 1.391(2) . ?
 C2 C7 1.390(2) . ?
 C3 H3 0.9500 . ?
 C3 C4 1.387(2) . ?
 C4 H4 0.9500 . ?
 C4 C5 1.375(3) . ?
 C5 H5 0.9500 . ?
 C5 C6 1.390(3) . ?
 C6 H6 0.9500 . ?
 C6 C7 1.390(2) . ?
 C7 H7 0.9500 . ?
 C8 C9 1.517(2) . ?
 C8 C10 1.523(2) . ?
 C8 C11 1.525(2) . ?
 C8 N1 1.4928(17) . ?
 C9 H9a 0.9800 . ?
 C9 H9b 0.9800 . ?
 C9 H9c 0.9800 . ?
 C10 H10a 0.9800 . ?
 C10 H10b 0.9800 . ?
 C10 H10c 0.9800 . ?
 C11 H11a 0.9800 . ?
 C11 H11b 0.9800 . ?
 C11 H11c 0.9800 . ?
 C12 C13 1.527(2) . ?
 C12 C14 1.522(2) . ?
 C12 C15 1.532(2) . ?
 C12 N2 1.4792(17) . ?
 C13 H13a 0.9800 . ?
 C13 H13b 0.9800 . ?
 C13 H13c 0.9800 . ?
 C14 H14a 0.9800 . ?
 C14 H14b 0.9800 . ?
 C14 H14c 0.9800 . ?
 C15 H15a 0.9800 . ?
 C15 H15b 0.9800 . ?
 C15 H15c 0.9800 . ?
 Si1 N1 1.8057(11) . ?
 Si1 N2 1.8152(11) . ?
 Si1 N3A 1.753(8) . ?
 Si1 N4A 1.597(9) . ?
 Si1 N3B 1.748(10) . ?
 Si1 N4B 1.582(9) . ?
 N3A C16A 1.497(11) . ?
 N3A Si2A 1.872(7) . ?
 N3A Si2B 1.858(8) . ?
 C16A C17A 1.563(11) . ?
 C16A C18A 1.529(10) . ?
 C16A C19A 1.515(11) . ?
 C17A H17a 0.9800 . ?
 C17A H17b 0.9800 . ?
 C17A H17c 0.9800 . ?
 C18A H18a 0.9800 . ?
 C18A H18b 0.9800 . ?
 C18A H18c 0.9800 . ?
 C19A H19a 0.9800 . ?
 C19A H19b 0.9800 . ?
 C19A H19c 0.9800 . ?
 N4A Si3A 1.693(8) . ?
 N4A Si2A 1.780(8) . ?
 N4A Si2B 1.831(8) . ?
 Si3A C20A 1.818(6) . ?
 Si3A C21A 1.844(5) . ?
 Si3A C22A 1.851(7) . ?
 C20A H20a 0.9800 . ?
 C20A H20b 0.9800 . ?
 C20A H20c 0.9800 . ?
 C21A H21a 0.9800 . ?
 C21A H21b 0.9800 . ?
 C21A H21c 0.9800 . ?
 C22A H22a 0.9800 . ?
 C22A H22b 0.9800 . ?
 C22A H22c 0.9800 . ?
 N3B C16B 1.472(14) . ?
 N3B Si2A 1.855(8) . ?
 N3B Si2B 1.907(9) . ?
 C16B C17B 1.566(12) . ?
 C16B C18B 1.558(11) . ?
 C16B C19B 1.558(12) . ?
 C17B H17d 0.9800 . ?
 C17B H17e 0.9800 . ?
 C17B H17f 0.9800 . ?
 C18B H18d 0.9800 . ?
 C18B H18e 0.9800 . ?
 C18B H18f 0.9800 . ?
 C19B H19d 0.9800 . ?
 C19B H19e 0.9800 . ?
 C19B H19f 0.9800 . ?
 N4B Si3B 1.686(8) . ?
 N4B Si2A 1.792(8) . ?
 N4B Si2B 1.772(9) . ?
 Si3B C20B 1.821(6) . ?
 Si3B C21B 1.857(5) . ?
 Si3B C22B 1.831(7) . ?
 C20B H20d 0.9800 . ?
 C20B H20e 0.9800 . ?
 C20B H20f 0.9800 . ?
 C21B H21d 0.9800 . ?
 C21B H21e 0.9800 . ?
 C21B H21f 0.9800 . ?
 C22B H22d 0.9800 . ?
 C22B H22e 0.9800 . ?
 C22B H22f 0.9800 . ?
 Si2A N5A 1.599(2) . ?
 Si2A C30A 1.9179(18) . ?
 N5A Si4A 1.646(2) . ?
 Si4A C23A 1.877(3) . ?
 Si4A C24A 1.871(4) . ?
 Si4A C25A 1.879(3) . ?
 C23A H23a 0.9800 . ?
 C23A H23b 0.9800 . ?
 C23A H23c 0.9800 . ?
 C24A H24a 0.9800 . ?
 C24A H24b 0.9800 . ?
 C24A H24c 0.9800 . ?
 C25A H25a 0.9800 . ?
 C25A H25b 0.9800 . ?
 C25A H25c 0.9800 . ?
 N6A C26A 1.501(5) . ?
 N6A C30A 1.284(2) . ?
 C26A C27A 1.540(5) . ?
 C26A C28A 1.517(6) . ?
 C26A C29A 1.529(6) . ?
 C27A H27a 0.9800 . ?
 C27A H27b 0.9800 . ?
 C27A H27c 0.9800 . ?
 C28A H28a 0.9800 . ?
 C28A H28b 0.9800 . ?
 C28A H28c 0.9800 . ?
 C29A H29a 0.9800 . ?
 C29A H29b 0.9800 . ?
 C29A H29c 0.9800 . ?
 C30A C31A 1.504(2) . ?
 C31A C32A 1.394(2) . ?
 C31A C36A 1.397(2) . ?
 C32A H32A 0.9500 . ?
 C32A C33A 1.396(4) . ?
 C33A H33A 0.9500 . ?
 C33A C34A 1.383(6) . ?
 C34A H34A 0.9500 . ?
 C34A C35A 1.407(5) . ?
 C35A H35A 0.9500 . ?
 C35A C36A 1.391(3) . ?
 C36A H36A 0.9500 . ?
 Si2B N5B 1.602(7) . ?
 Si2B C30B 1.914(6) . ?
 N5B Si4B 1.651(8) . ?
 Si4B C23B 1.930(9) . ?
 Si4B C24B 1.852(16) . ?
 Si4B C25B 1.868(10) . ?
 C23B H23d 0.9800 . ?
 C23B H23e 0.9800 . ?
 C23B H23f 0.9800 . ?
 C24B H24d 0.9800 . ?
 C24B H24e 0.9800 . ?
 C24B H24f 0.9800 . ?
 C25B H25d 0.9800 . ?
 C25B H25e 0.9800 . ?
 C25B H25f 0.9800 . ?
 N6B C26B 1.425(16) . ?
 N6B C30B 1.275(9) . ?
 C26B C27B 1.537(13) . ?
 C26B C28B 1.577(16) . ?
 C26B C29B 1.511(14) . ?
 C27B H27d 0.9800 . ?
 C27B H27e 0.9800 . ?
 C27B H27f 0.9800 . ?
 C28B H28d 0.9800 . ?
 C28B H28e 0.9800 . ?
 C28B H28f 0.9800 . ?
 C29B H29d 0.9800 . ?
 C29B H29e 0.9800 . ?
 C29B H29f 0.9800 . ?
 C30B C31B 1.524(8) . ?
 C31B C32B 1.386(7) . ?
 C31B C36B 1.383(7) . ?
 C32B H32B 0.9500 . ?
 C32B C33B 1.399(14) . ?
 C33B H33B 0.9500 . ?
 C33B C34B 1.352(16) . ?
 C34B H34B 0.9500 . ?
 C34B C35B 1.366(16) . ?
 C35B H35B 0.9500 . ?
 C35B C36B 1.348(11) . ?
 C36B H36B 0.9500 . ?

loop_
  _geom_angle_atom_site_label_1
  _geom_angle_atom_site_label_2
  _geom_angle_atom_site_label_3
  _geom_angle
  _geom_angle_site_symmetry_1
  _geom_angle_site_symmetry_3
  _geom_angle_publ_flag
 Si1 C1 C2 179.42(13) . . ?
 N1 C1 C2 126.29(14) . . ?
 N1 C1 Si1 53.13(6) . . ?
 N2 C1 C2 127.03(14) . . ?
 N2 C1 Si1 53.54(6) . . ?
 N2 C1 N1 106.67(8) . . ?
 C3 C2 C1 119.81(14) . . ?
 C7 C2 C1 119.76(14) . . ?
 C7 C2 C3 120.42(9) . . ?
 H3 C3 C2 120.17(8) . . ?
 C4 C3 C2 119.66(14) . . ?
 C4 C3 H3 120.17(10) . . ?
 H4 C4 C3 119.82(10) . . ?
 C5 C4 C3 120.35(15) . . ?
 C5 C4 H4 119.82(9) . . ?
 H5 C5 C4 119.99(9) . . ?
 C6 C5 C4 120.02(12) . . ?
 C6 C5 H5 119.99(9) . . ?
 H6 C6 C5 119.79(9) . . ?
 C7 C6 C5 120.41(15) . . ?
 C7 C6 H6 119.79(10) . . ?
 C6 C7 C2 119.11(15) . . ?
 H7 C7 C2 120.45(8) . . ?
 H7 C7 C6 120.45(10) . . ?
 C10 C8 C9 110.23(13) . . ?
 C11 C8 C9 109.32(13) . . ?
 C11 C8 C10 109.17(14) . . ?
 N1 C8 C9 110.16(12) . . ?
 N1 C8 C10 112.31(12) . . ?
 N1 C8 C11 105.52(11) . . ?
 H9a C9 C8 109.5 . . ?
 H9b C9 C8 109.5 . . ?
 H9b C9 H9a 109.5 . . ?
 H9c C9 C8 109.5 . . ?
 H9c C9 H9a 109.5 . . ?
 H9c C9 H9b 109.5 . . ?
 H10a C10 C8 109.5 . . ?
 H10b C10 C8 109.5 . . ?
 H10b C10 H10a 109.5 . . ?
 H10c C10 C8 109.5 . . ?
 H10c C10 H10a 109.5 . . ?
 H10c C10 H10b 109.5 . . ?
 H11a C11 C8 109.5 . . ?
 H11b C11 C8 109.5 . . ?
 H11b C11 H11a 109.5 . . ?
 H11c C11 C8 109.5 . . ?
 H11c C11 H11a 109.5 . . ?
 H11c C11 H11b 109.5 . . ?
 C14 C12 C13 110.12(14) . . ?
 C15 C12 C13 108.64(14) . . ?
 C15 C12 C14 110.00(13) . . ?
 N2 C12 C13 106.11(11) . . ?
 N2 C12 C14 111.99(12) . . ?
 N2 C12 C15 109.85(12) . . ?
 H13a C13 C12 109.5 . . ?
 H13b C13 C12 109.5 . . ?
 H13b C13 H13a 109.5 . . ?
 H13c C13 C12 109.5 . . ?
 H13c C13 H13a 109.5 . . ?
 H13c C13 H13b 109.5 . . ?
 H14a C14 C12 109.5 . . ?
 H14b C14 C12 109.5 . . ?
 H14b C14 H14a 109.5 . . ?
 H14c C14 C12 109.5 . . ?
 H14c C14 H14a 109.5 . . ?
 H14c C14 H14b 109.5 . . ?
 H15a C15 C12 109.5 . . ?
 H15b C15 C12 109.5 . . ?
 H15b C15 H15a 109.5 . . ?
 H15c C15 C12 109.5 . . ?
 H15c C15 H15a 109.5 . . ?
 H15c C15 H15b 109.5 . . ?
 N1 Si1 C1 36.43(5) . . ?
 N2 Si1 C1 36.43(5) . . ?
 N2 Si1 N1 72.86(4) . . ?
 N3A Si1 C1 131.4(2) . . ?
 N3A Si1 N1 122.8(4) . . ?
 N3A Si1 N2 121.6(4) . . ?
 N4A Si1 C1 134.8(3) . . ?
 N4A Si1 N1 126.0(4) . . ?
 N4A Si1 N2 123.0(4) . . ?
 N4A Si1 N3A 93.7(3) . . ?
 N3B Si1 C1 132.2(3) . . ?
 N3B Si1 N1 123.9(4) . . ?
 N3B Si1 N2 121.4(4) . . ?
 N3B Si1 N3A 96.3(3) . . ?
 N3B Si1 N4A 2.7(5) . . ?
 N4B Si1 C1 134.4(3) . . ?
 N4B Si1 N1 124.5(4) . . ?
 N4B Si1 N2 124.1(4) . . ?
 N4B Si1 N3A 3.0(5) . . ?
 N4B Si1 N4A 90.8(4) . . ?
 N4B Si1 N3B 93.4(4) . . ?
 C8 N1 C1 132.23(11) . . ?
 Si1 N1 C1 90.44(8) . . ?
 Si1 N1 C8 137.33(9) . . ?
 C12 N2 C1 132.37(11) . . ?
 Si1 N2 C1 90.03(8) . . ?
 Si1 N2 C12 137.60(9) . . ?
 C16A N3A Si1 137.1(6) . . ?
 Si2A N3A Si1 86.5(3) . . ?
 Si2A N3A C16A 135.6(7) . . ?
 Si2B N3A Si1 86.6(3) . . ?
 Si2B N3A C16A 134.5(7) . . ?
 Si2B N3A Si2A 24.40(11) . . ?
 C17A C16A N3A 109.2(9) . . ?
 C18A C16A N3A 108.2(8) . . ?
 C18A C16A C17A 111.1(7) . . ?
 C19A C16A N3A 112.2(8) . . ?
 C19A C16A C17A 108.6(8) . . ?
 C19A C16A C18A 107.6(7) . . ?
 H17a C17A C16A 109.5 . . ?
 H17b C17A C16A 109.5 . . ?
 H17b C17A H17a 109.5 . . ?
 H17c C17A C16A 109.5 . . ?
 H17c C17A H17a 109.5 . . ?
 H17c C17A H17b 109.5 . . ?
 H18a C18A C16A 109.5 . . ?
 H18b C18A C16A 109.5 . . ?
 H18b C18A H18a 109.5 . . ?
 H18c C18A C16A 109.5 . . ?
 H18c C18A H18a 109.5 . . ?
 H18c C18A H18b 109.5 . . ?
 H19a C19A C16A 109.5 . . ?
 H19b C19A C16A 109.5 . . ?
 H19b C19A H19a 109.5 . . ?
 H19c C19A C16A 109.5 . . ?
 H19c C19A H19a 109.5 . . ?
 H19c C19A H19b 109.5 . . ?
 Si3A N4A Si1 137.4(5) . . ?
 Si2A N4A Si1 94.6(4) . . ?
 Si2A N4A Si3A 126.6(6) . . ?
 Si2B N4A Si1 92.3(4) . . ?
 Si2B N4A Si3A 129.2(6) . . ?
 Si2B N4A Si2A 25.16(12) . . ?
 C20A Si3A N4A 109.7(5) . . ?
 C21A Si3A N4A 110.5(5) . . ?
 C21A Si3A C20A 108.6(3) . . ?
 C22A Si3A N4A 106.6(5) . . ?
 C22A Si3A C20A 111.7(4) . . ?
 C22A Si3A C21A 109.7(4) . . ?
 H20a C20A Si3A 109.5 . . ?
 H20b C20A Si3A 109.5 . . ?
 H20b C20A H20a 109.5 . . ?
 H20c C20A Si3A 109.5 . . ?
 H20c C20A H20a 109.5 . . ?
 H20c C20A H20b 109.5 . . ?
 H21a C21A Si3A 109.5 . . ?
 H21b C21A Si3A 109.5 . . ?
 H21b C21A H21a 109.5 . . ?
 H21c C21A Si3A 109.5 . . ?
 H21c C21A H21a 109.5 . . ?
 H21c C21A H21b 109.5 . . ?
 H22a C22A Si3A 109.5 . . ?
 H22b C22A Si3A 109.5 . . ?
 H22b C22A H22a 109.5 . . ?
 H22c C22A Si3A 109.5 . . ?
 H22c C22A H22a 109.5 . . ?
 H22c C22A H22b 109.5 . . ?
 C16B N3B Si1 136.7(7) . . ?
 Si2A N3B Si1 87.2(4) . . ?
 Si2A N3B C16B 135.5(8) . . ?
 Si2B N3B Si1 85.2(4) . . ?
 Si2B N3B C16B 135.9(8) . . ?
 Si2B N3B Si2A 24.14(12) . . ?
 C17B C16B N3B 110.9(11) . . ?
 C18B C16B N3B 108.5(10) . . ?
 C18B C16B C17B 109.7(9) . . ?
 C19B C16B N3B 113.4(9) . . ?
 C19B C16B C17B 106.3(9) . . ?
 C19B C16B C18B 107.9(9) . . ?
 H17d C17B C16B 109.5 . . ?
 H17e C17B C16B 109.5 . . ?
 H17e C17B H17d 109.5 . . ?
 H17f C17B C16B 109.5 . . ?
 H17f C17B H17d 109.5 . . ?
 H17f C17B H17e 109.5 . . ?
 H18d C18B C16B 109.5 . . ?
 H18e C18B C16B 109.5 . . ?
 H18e C18B H18d 109.5 . . ?
 H18f C18B C16B 109.5 . . ?
 H18f C18B H18d 109.5 . . ?
 H18f C18B H18e 109.5 . . ?
 H19d C19B C16B 109.5 . . ?
 H19e C19B C16B 109.5 . . ?
 H19e C19B H19d 109.5 . . ?
 H19f C19B C16B 109.5 . . ?
 H19f C19B H19d 109.5 . . ?
 H19f C19B H19e 109.5 . . ?
 Si3B N4B Si1 136.1(5) . . ?
 Si2A N4B Si1 94.7(4) . . ?
 Si2A N4B Si3B 129.2(6) . . ?
 Si2B N4B Si1 95.0(4) . . ?
 Si2B N4B Si3B 124.8(6) . . ?
 Si2B N4B Si2A 25.55(13) . . ?
 C20B Si3B N4B 109.8(5) . . ?
 C21B Si3B N4B 111.2(5) . . ?
 C21B Si3B C20B 106.8(3) . . ?
 C22B Si3B N4B 108.0(4) . . ?
 C22B Si3B C20B 111.9(4) . . ?
 C22B Si3B C21B 109.3(3) . . ?
 H20d C20B Si3B 109.5 . . ?
 H20e C20B Si3B 109.5 . . ?
 H20e C20B H20d 109.5 . . ?
 H20f C20B Si3B 109.5 . . ?
 H20f C20B H20d 109.5 . . ?
 H20f C20B H20e 109.5 . . ?
 H21d C21B Si3B 109.5 . . ?
 H21e C21B Si3B 109.5 . . ?
 H21e C21B H21d 109.5 . . ?
 H21f C21B Si3B 109.5 . . ?
 H21f C21B H21d 109.5 . . ?
 H21f C21B H21e 109.5 . . ?
 H22d C22B Si3B 109.5 . . ?
 H22e C22B Si3B 109.5 . . ?
 H22e C22B H22d 109.5 . . ?
 H22f C22B Si3B 109.5 . . ?
 H22f C22B H22d 109.5 . . ?
 H22f C22B H22e 109.5 . . ?
 N4A Si2A N3A 84.1(4) . . ?
 N3B Si2A N3A 88.9(4) . . ?
 N3B Si2A N4A 4.8(6) . . ?
 N4B Si2A N3A 5.5(6) . . ?
 N4B Si2A N4A 78.6(4) . . ?
 N4B Si2A N3B 83.4(4) . . ?
 N5A Si2A N3A 118.7(4) . . ?
 N5A Si2A N4A 121.6(5) . . ?
 N5A Si2A N3B 119.6(5) . . ?
 N5A Si2A N4B 121.8(4) . . ?
 C30A Si2A N3A 107.3(4) . . ?
 C30A Si2A N4A 109.7(4) . . ?
 C30A Si2A N3B 107.8(5) . . ?
 C30A Si2A N4B 108.7(4) . . ?
 C30A Si2A N5A 112.04(10) . . ?
 Si4A N5A Si2A 174.92(18) . . ?
 C23A Si4A N5A 113.65(12) . . ?
 C24A Si4A N5A 112.44(19) . . ?
 C24A Si4A C23A 105.2(2) . . ?
 C25A Si4A N5A 112.18(15) . . ?
 C25A Si4A C23A 106.69(14) . . ?
 C25A Si4A C24A 106.1(2) . . ?
 H23a C23A Si4A 109.5 . . ?
 H23b C23A Si4A 109.5 . . ?
 H23b C23A H23a 109.5 . . ?
 H23c C23A Si4A 109.5 . . ?
 H23c C23A H23a 109.5 . . ?
 H23c C23A H23b 109.5 . . ?
 H24a C24A Si4A 109.5 . . ?
 H24b C24A Si4A 109.5 . . ?
 H24b C24A H24a 109.5 . . ?
 H24c C24A Si4A 109.5 . . ?
 H24c C24A H24a 109.5 . . ?
 H24c C24A H24b 109.5 . . ?
 H25a C25A Si4A 109.5 . . ?
 H25b C25A Si4A 109.5 . . ?
 H25b C25A H25a 109.5 . . ?
 H25c C25A Si4A 109.5 . . ?
 H25c C25A H25a 109.5 . . ?
 H25c C25A H25b 109.5 . . ?
 C30A N6A C26A 126.1(2) . . ?
 C27A C26A N6A 115.3(3) . . ?
 C28A C26A N6A 106.2(6) . . ?
 C28A C26A C27A 107.5(6) . . ?
 C29A C26A N6A 108.0(3) . . ?
 C29A C26A C27A 110.4(4) . . ?
 C29A C26A C28A 109.1(5) . . ?
 H27a C27A C26A 109.5 . . ?
 H27b C27A C26A 109.5 . . ?
 H27b C27A H27a 109.5 . . ?
 H27c C27A C26A 109.5 . . ?
 H27c C27A H27a 109.5 . . ?
 H27c C27A H27b 109.5 . . ?
 H28a C28A C26A 109.5 . . ?
 H28b C28A C26A 109.5 . . ?
 H28b C28A H28a 109.5 . . ?
 H28c C28A C26A 109.5 . . ?
 H28c C28A H28a 109.5 . . ?
 H28c C28A H28b 109.5 . . ?
 H29a C29A C26A 109.5 . . ?
 H29b C29A C26A 109.5 . . ?
 H29b C29A H29a 109.5 . . ?
 H29c C29A C26A 109.5 . . ?
 H29c C29A H29a 109.5 . . ?
 H29c C29A H29b 109.5 . . ?
 N6A C30A Si2A 117.71(14) . . ?
 C31A C30A Si2A 115.31(13) . . ?
 C31A C30A N6A 126.97(16) . . ?
 C32A C31A C30A 119.95(15) . . ?
 C36A C31A C30A 121.86(15) . . ?
 C36A C31A C32A 118.09(15) . . ?
 H32A C32A C31A 119.10(10) . . ?
 C33A C32A C31A 121.8(2) . . ?
 C33A C32A H32A 119.1(2) . . ?
 H33A C33A C32A 120.2(2) . . ?
 C34A C33A C32A 119.6(4) . . ?
 C34A C33A H33A 120.2(3) . . ?
 H34A C34A C33A 120.4(3) . . ?
 C35A C34A C33A 119.2(5) . . ?
 C35A C34A H34A 120.4(3) . . ?
 H35A C35A C34A 119.7(3) . . ?
 C36A C35A C34A 120.5(3) . . ?
 C36A C35A H35A 119.73(14) . . ?
 C35A C36A C31A 120.48(18) . . ?
 H36A C36A C31A 119.76(10) . . ?
 H36A C36A C35A 119.76(14) . . ?
 N4A Si2B N3A 83.1(4) . . ?
 N3B Si2B N3A 87.7(4) . . ?
 N3B Si2B N4A 4.7(6) . . ?
 N4B Si2B N3A 5.4(6) . . ?
 N4B Si2B N4A 77.8(4) . . ?
 N4B Si2B N3B 82.4(4) . . ?
 N5B Si2B N3A 124.3(5) . . ?
 N5B Si2B N4A 123.7(5) . . ?
 N5B Si2B N3B 121.1(6) . . ?
 N5B Si2B N4B 126.3(6) . . ?
 C30B Si2B N3A 104.5(4) . . ?
 C30B Si2B N4A 105.8(5) . . ?
 C30B Si2B N3B 104.3(5) . . ?
 C30B Si2B N4B 106.9(5) . . ?
 C30B Si2B N5B 111.3(3) . . ?
 Si4B N5B Si2B 175.7(6) . . ?
 C23B Si4B N5B 111.5(5) . . ?
 C24B Si4B N5B 110.3(14) . . ?
 C24B Si4B C23B 110.0(13) . . ?
 C25B Si4B N5B 112.8(5) . . ?
 C25B Si4B C23B 107.1(6) . . ?
 C25B Si4B C24B 104.9(13) . . ?
 H23d C23B Si4B 109.5 . . ?
 H23e C23B Si4B 109.5 . . ?
 H23e C23B H23d 109.5 . . ?
 H23f C23B Si4B 109.5 . . ?
 H23f C23B H23d 109.5 . . ?
 H23f C23B H23e 109.5 . . ?
 H24d C24B Si4B 109.5 . . ?
 H24e C24B Si4B 109.5 . . ?
 H24e C24B H24d 109.5 . . ?
 H24f C24B Si4B 109.5 . . ?
 H24f C24B H24d 109.5 . . ?
 H24f C24B H24e 109.5 . . ?
 H25d C25B Si4B 109.5 . . ?
 H25e C25B Si4B 109.5 . . ?
 H25e C25B H25d 109.5 . . ?
 H25f C25B Si4B 109.5 . . ?
 H25f C25B H25d 109.5 . . ?
 H25f C25B H25e 109.5 . . ?
 C30B N6B C26B 126.1(8) . . ?
 C27B C26B N6B 115.4(9) . . ?
 C28B C26B N6B 105.5(12) . . ?
 C28B C26B C27B 108.1(12) . . ?
 C29B C26B N6B 111.6(10) . . ?
 C29B C26B C27B 109.3(11) . . ?
 C29B C26B C28B 106.3(12) . . ?
 H27d C27B C26B 109.5 . . ?
 H27e C27B C26B 109.5 . . ?
 H27e C27B H27d 109.5 . . ?
 H27f C27B C26B 109.5 . . ?
 H27f C27B H27d 109.5 . . ?
 H27f C27B H27e 109.5 . . ?
 H28d C28B C26B 109.5 . . ?
 H28e C28B C26B 109.5 . . ?
 H28e C28B H28d 109.5 . . ?
 H28f C28B C26B 109.5 . . ?
 H28f C28B H28d 109.5 . . ?
 H28f C28B H28e 109.5 . . ?
 H29d C29B C26B 109.5 . . ?
 H29e C29B C26B 109.5 . . ?
 H29e C29B H29d 109.5 . . ?
 H29f C29B C26B 109.5 . . ?
 H29f C29B H29d 109.5 . . ?
 H29f C29B H29e 109.5 . . ?
 N6B C30B Si2B 118.0(5) . . ?
 C31B C30B Si2B 113.9(4) . . ?
 C31B C30B N6B 128.2(6) . . ?
 C32B C31B C30B 123.5(5) . . ?
 C36B C31B C30B 118.8(5) . . ?
 C36B C31B C32B 117.7(5) . . ?
 H32B C32B C31B 121.5(3) . . ?
 C33B C32B C31B 117.1(9) . . ?
 C33B C32B H32B 121.5(8) . . ?
 H33B C33B C32B 117.6(8) . . ?
 C34B C33B C32B 124.8(15) . . ?
 C34B C33B H33B 117.6(10) . . ?
 H34B C34B C33B 121.8(10) . . ?
 C35B C34B C33B 116.3(17) . . ?
 C35B C34B H34B 121.8(9) . . ?
 H35B C35B C34B 119.4(9) . . ?
 C36B C35B C34B 121.3(13) . . ?
 C36B C35B H35B 119.4(7) . . ?
 C35B C36B C31B 122.7(8) . . ?
 H36B C36B C31B 118.6(3) . . ?
 H36B C36B C35B 118.6(7) . . ?

_olex2_submission_special_instructions  'No special instructions were received'
loop_
  _restr_chirality_atom_site_label_1
  _restr_chirality_atom_site_label_2
  _restr_chirality_atom_site_label_3
  _restr_chirality_atom_site_label_4
  _restr_chirality_site_symmetry_1
  _restr_chirality_site_symmetry_2
  _restr_chirality_site_symmetry_3
  _restr_chirality_site_symmetry_4
  _restr_chirality_volume_target
  _restr_chirality_weight_param
  _restr_chirality_diff
 C31A C32A C35A C36A 1 1 1 1 0.0000 0.1000 0.1508
 C32A C35A C36A C30A 1 1 1 1 0.0000 0.1000 -0.1905
 C33A C31A C32A C35A 1 1 1 1 0.0000 0.1000 0.2328
 C35A C36A C30A C34A 1 1 1 1 0.0000 0.1000 0.0308
 C31B C32B C35B C36B 1 1 1 1 0.0000 0.1000 -0.0436
 C32B C35B C36B C30B 1 1 1 1 0.0000 0.1000 0.0535
 C33B C31B C32B C35B 1 1 1 1 0.0000 0.1000 -0.1691
 C35B C36B C30B C34B 1 1 1 1 0.0000 0.1000 -0.0099

loop_
  _restr_equal_distance_atom_site_label_1
  _restr_equal_distance_atom_site_label_2
  _restr_equal_distance_site_symmetry_2
  _restr_equal_distance_class_id
 Si1 N1 1 59
 Si1 N1 1 59
 Si1 N2 1 42
 Si1 N2 1 42
 Si1 N3A 1 25
 Si1 N3A 1 64
 Si1 C16A 1 118
 Si1 C16A 1 121
 Si1 N4A 1 36
 Si1 N4A 1 49
 Si1 Si3A 1 109
 Si1 Si3A 1 105
 Si1 N3B 1 64
 Si1 N3B 1 25
 Si1 C16B 1 121
 Si1 C16B 1 118
 Si1 N4B 1 49
 Si1 N4B 1 36
 Si1 Si3B 1 105
 Si1 Si3B 1 109
 Si1 Si2A 1 7
 Si1 Si2A 1 120
 Si1 Si2A 1 120
 Si1 Si2B 1 7
 N1 N2 1 143
 N1 N2 1 143
 N1 N3A 1 91
 N1 N3A 1 94
 N1 N4A 1 103
 N1 N4A 1 78
 N1 N3B 1 91
 N1 N3B 1 94
 N1 N4B 1 103
 N1 N4B 1 78
 N2 N3A 1 69
 N2 N3A 1 126
 N2 N4A 1 114
 N2 N4A 1 140
 N2 N3B 1 69
 N2 N3B 1 126
 N2 N4B 1 114
 N2 N4B 1 140
 N3A C16A 1 35
 N3A C16A 1 39
 N3A C17A 1 108
 N3A C17A 1 129
 N3A C17A 1 13
 N3A C18A 1 122
 N3A C18A 1 13
 N3A C18A 1 141
 N3A C19A 1 136
 N3A C19A 1 72
 N3A C19A 1 13
 N3A N4A 1 86
 N3A N4A 1 107
 N3A N3B 1 95
 N3A N4B 1 84
 N3A Si2A 1 33
 N3A Si2A 1 51
 N3A Si2A 1 2
 N3A N5A 1 128
 N3A N5A 1 110
 N3A N5A 1 3
 N3A C30A 1 106
 N3A C30A 1 100
 N3A C30A 1 5
 N3A Si2B 1 2
 N3A N5B 1 3
 N3A C30B 1 5
 C16A C17A 1 12
 C16A C17A 1 57
 C16A C17A 1 53
 C16A C18A 1 12
 C16A C18A 1 43
 C16A C18A 1 37
 C16A C19A 1 12
 C16A C19A 1 28
 C16A C19A 1 24
 C16A Si2A 1 112
 C16A Si2A 1 104
 C17A C18A 1 20
 C17A C18A 1 125
 C17A C18A 1 119
 C17A C19A 1 77
 C17A C19A 1 20
 C17A C19A 1 135
 C18A C19A 1 20
 C18A C19A 1 145
 C18A C19A 1 117
 N4A Si3A 1 47
 N4A Si3A 1 31
 N4A C20A 1 65
 N4A C20A 1 70
 N4A C20A 1 17
 N4A C21A 1 17
 N4A C21A 1 82
 N4A C21A 1 76
 N4A C22A 1 17
 N4A C22A 1 116
 N4A C22A 1 92
 N4A N3B 1 130
 N4A N4B 1 115
 N4A Si2A 1 62
 N4A Si2A 1 30
 N4A Si2A 1 1
 N4A N5A 1 85
 N4A N5A 1 4
 N4A N5A 1 138
 N4A C30A 1 134
 N4A C30A 1 79
 N4A C30A 1 6
 N4A Si2B 1 1
 N4A N5B 1 4
 N4A C30B 1 6
 Si3A C20A 1 52
 Si3A C20A 1 56
 Si3A C20A 1 9
 Si3A C21A 1 40
 Si3A C21A 1 9
 Si3A C21A 1 34
 Si3A C22A 1 21
 Si3A C22A 1 9
 Si3A C22A 1 26
 Si3A Si2A 1 139
 Si3A Si2A 1 99
 C20A C21A 1 14
 C20A C21A 1 80
 C20A C21A 1 75
 C20A C22A 1 14
 C20A C22A 1 97
 C20A C22A 1 96
 C21A C22A 1 14
 C21A C22A 1 81
 C21A C22A 1 98
 N3B N3A 1 95
 N3B N4A 1 84
 N3B C16B 1 39
 N3B C16B 1 35
 N3B C17B 1 13
 N3B C17B 1 129
 N3B C17B 1 108
 N3B C18B 1 13
 N3B C18B 1 141
 N3B C18B 1 122
 N3B C19B 1 13
 N3B C19B 1 136
 N3B C19B 1 72
 N3B N4B 1 107
 N3B N4B 1 86
 N3B Si2A 1 2
 N3B Si2A 1 51
 N3B Si2A 1 33
 N3B N5A 1 110
 N3B N5A 1 128
 N3B N5A 1 3
 N3B C30A 1 106
 N3B C30A 1 5
 N3B C30A 1 100
 N3B Si2B 1 2
 N3B N5B 1 3
 N3B C30B 1 5
 C16B C17B 1 53
 C16B C17B 1 57
 C16B C17B 1 12
 C16B C18B 1 37
 C16B C18B 1 43
 C16B C18B 1 12
 C16B C19B 1 24
 C16B C19B 1 28
 C16B C19B 1 12
 C16B Si2A 1 104
 C16B Si2A 1 112
 C17B C18B 1 125
 C17B C18B 1 119
 C17B C18B 1 20
 C17B C19B 1 135
 C17B C19B 1 77
 C17B C19B 1 20
 C18B C19B 1 20
 C18B C19B 1 117
 C18B C19B 1 145
 N4B N3A 1 130
 N4B N4A 1 115
 N4B Si3B 1 31
 N4B Si3B 1 47
 N4B C20B 1 70
 N4B C20B 1 17
 N4B C20B 1 65
 N4B C21B 1 82
 N4B C21B 1 17
 N4B C21B 1 76
 N4B C22B 1 116
 N4B C22B 1 92
 N4B C22B 1 17
 N4B Si2A 1 62
 N4B Si2A 1 30
 N4B Si2A 1 1
 N4B N5A 1 85
 N4B N5A 1 138
 N4B N5A 1 4
 N4B C30A 1 134
 N4B C30A 1 79
 N4B C30A 1 6
 N4B Si2B 1 1
 N4B N5B 1 4
 N4B C30B 1 6
 Si3B C20B 1 56
 Si3B C20B 1 9
 Si3B C20B 1 52
 Si3B C21B 1 9
 Si3B C21B 1 34
 Si3B C21B 1 40
 Si3B C22B 1 26
 Si3B C22B 1 21
 Si3B C22B 1 9
 Si3B Si2A 1 139
 Si3B Si2A 1 99
 C20B C21B 1 75
 C20B C21B 1 14
 C20B C21B 1 80
 C20B C22B 1 96
 C20B C22B 1 14
 C20B C22B 1 97
 C21B C22B 1 81
 C21B C22B 1 14
 C21B C22B 1 98
 Si2A N5A 1 45
 Si2A N5A 1 45
 Si2A Si4A 1 87
 Si2A Si4A 1 87
 Si2A N6A 1 102
 Si2A N6A 1 102
 Si2A C30A 1 32
 Si2A C30A 1 32
 Si2A C31A 1 66
 Si2A C31A 1 66
 N5A Si4A 1 54
 N5A Si4A 1 54
 N5A C23A 1 93
 N5A C23A 1 93
 N5A C23A 1 8
 N5A C23A 1 16
 N5A C24A 1 8
 N5A C24A 1 131
 N5A C24A 1 16
 N5A C24A 1 131
 N5A C25A 1 8
 N5A C25A 1 142
 N5A C25A 1 142
 N5A C25A 1 16
 N5A C30A 1 144
 N5A C30A 1 144
 Si4A C23A 1 9
 Si4A C23A 1 23
 Si4A C23A 1 23
 Si4A C24A 1 9
 Si4A C24A 1 55
 Si4A C24A 1 55
 Si4A C25A 1 38
 Si4A C25A 1 38
 Si4A C25A 1 9
 C23A C24A 1 14
 C23A C24A 1 133
 C23A C24A 1 133
 C23A C25A 1 14
 C23A C25A 1 146
 C23A C25A 1 146
 C24A C25A 1 14
 C24A C25A 1 132
 C24A C25A 1 132
 N6A C26A 1 60
 N6A C26A 1 60
 N6A C27A 1 74
 N6A C27A 1 74
 N6A C27A 1 18
 N6A C28A 1 18
 N6A C28A 1 88
 N6A C28A 1 88
 N6A C29A 1 101
 N6A C29A 1 101
 N6A C29A 1 18
 N6A C30A 1 48
 N6A C30A 1 48
 N6A C31A 1 89
 N6A C31A 1 89
 C26A C27A 1 29
 C26A C27A 1 29
 C26A C27A 1 10
 C26A C28A 1 10
 C26A C28A 1 61
 C26A C28A 1 61
 C26A C29A 1 46
 C26A C29A 1 10
 C26A C29A 1 46
 C26A C30A 1 90
 C26A C30A 1 90
 C27A C28A 1 71
 C27A C28A 1 15
 C27A C28A 1 71
 C27A C29A 1 15
 C27A C29A 1 83
 C27A C29A 1 83
 C28A C29A 1 15
 C28A C29A 1 67
 C28A C29A 1 67
 C30A C31A 1 58
 C30A C31A 1 58
 C30A C32A 1 73
 C30A C32A 1 73
 C30A C36A 1 123
 C30A C36A 1 123
 C31A C32A 1 11
 C31A C32A 1 27
 C31A C32A 1 27
 C31A C33A 1 137
 C31A C33A 1 137
 C31A C33A 1 19
 C31A C35A 1 68
 C31A C35A 1 19
 C31A C35A 1 68
 C31A C36A 1 11
 C31A C36A 1 44
 C31A C36A 1 44
 C32A C33A 1 22
 C32A C33A 1 22
 C32A C33A 1 11
 C32A C34A 1 113
 C32A C34A 1 113
 C32A C34A 1 19
 C32A C36A 1 19
 C32A C36A 1 127
 C32A C36A 1 127
 C33A C34A 1 50
 C33A C34A 1 50
 C33A C34A 1 11
 C33A C35A 1 19
 C33A C35A 1 124
 C33A C35A 1 124
 C34A C35A 1 11
 C34A C35A 1 63
 C34A C35A 1 63
 C34A C36A 1 19
 C34A C36A 1 111
 C34A C36A 1 111
 C35A C36A 1 41
 C35A C36A 1 11
 C35A C36A 1 41
 N5B C23B 1 16
 N5B C24B 1 16
 N5B C25B 1 16
 Si4B C23B 1 9
 Si4B C24B 1 9
 Si4B C25B 1 9
 C23B C24B 1 14
 C23B C25B 1 14
 C24B C25B 1 14
 N6B C27B 1 18
 N6B C28B 1 18
 N6B C29B 1 18
 C26B C27B 1 10
 C26B C28B 1 10
 C26B C29B 1 10
 C27B C28B 1 15
 C27B C29B 1 15
 C28B C29B 1 15
 C31B C32B 1 11
 C31B C33B 1 19
 C31B C35B 1 19
 C31B C36B 1 11
 C32B C33B 1 11
 C32B C34B 1 19
 C32B C36B 1 19
 C33B C34B 1 11
 C33B C35B 1 19
 C34B C35B 1 11
 C34B C36B 1 19
 C35B C36B 1 11

loop_
  _restr_equal_distance_class_class_id
  _restr_equal_distance_class_target_weight_param
  _restr_equal_distance_class_average
  _restr_equal_distance_class_esd
  _restr_equal_distance_class_diff_max
 1 0.0200 1.7941 0.0227 0.0373
 2 0.0200 1.8729 0.0206 0.0340
 3 0.0400 3.0247 0.0358 0.0366
 4 0.0400 2.9897 0.0319 0.0400
 5 0.0400 3.0248 0.0283 0.0429
 6 0.0400 2.9975 0.0241 0.0341
 7 0.0400 2.4811 0.0044 0.0044
 8 0.0400 2.9347 0.0116 0.0164
 9 0.0200 1.8582 0.0292 0.0716
 10 0.0200 1.5351 0.0212 0.0414
 11 0.0200 1.3835 0.0179 0.0357
 12 0.0200 1.5481 0.0192 0.0329
 13 0.0400 2.4901 0.0274 0.0429
 14 0.0400 3.0089 0.0412 0.0884
 15 0.0400 2.4914 0.0220 0.0297
 16 0.0400 2.9300 0.0273 0.0527
 17 0.0400 2.8776 0.0301 0.0480
 18 0.0400 2.4599 0.0605 0.1102
 19 0.0400 2.3955 0.0352 0.0861
 20 0.0400 2.5131 0.0332 0.0571
 21 0.0200 1.8412 0.0101 0.0101
 22 0.0200 1.3957 0.0000 0.0000
 23 0.0200 1.8770 0.0000 0.0000
 24 0.0200 1.5365 0.0213 0.0213
 25 0.0200 1.7505 0.0027 0.0027
 26 0.0200 1.8412 0.0101 0.0101
 27 0.0200 1.3944 0.0000 0.0000
 28 0.0200 1.5365 0.0213 0.0213
 29 0.0200 1.5404 0.0000 0.0000
 30 0.0200 1.7863 0.0060 0.0060
 31 0.0200 1.6899 0.0035 0.0035
 32 0.0200 1.9179 0.0000 0.0000
 33 0.0200 1.8635 0.0081 0.0081
 34 0.0200 1.8505 0.0069 0.0069
 35 0.0200 1.4844 0.0123 0.0123
 36 0.0200 1.5893 0.0072 0.0072
 37 0.0200 1.5433 0.0148 0.0148
 38 0.0200 1.8786 0.0000 0.0000
 39 0.0200 1.4844 0.0123 0.0123
 40 0.0200 1.8505 0.0069 0.0069
 41 0.0200 1.3909 0.0000 0.0000
 42 0.0200 1.8152 0.0000 0.0000
 43 0.0200 1.5433 0.0148 0.0148
 44 0.0200 1.3967 0.0000 0.0000
 45 0.0200 1.5993 0.0000 0.0000
 46 0.0200 1.5291 0.0000 0.0000
 47 0.0200 1.6899 0.0035 0.0035
 48 0.0200 1.2843 0.0000 0.0000
 49 0.0200 1.5893 0.0072 0.0072
 50 0.0200 1.3829 0.0000 0.0000
 51 0.0200 1.8635 0.0081 0.0081
 52 0.0200 1.8194 0.0018 0.0018
 53 0.0200 1.5644 0.0017 0.0017
 54 0.0200 1.6455 0.0000 0.0000
 55 0.0200 1.8708 0.0000 0.0000
 56 0.0200 1.8194 0.0018 0.0018
 57 0.0200 1.5644 0.0017 0.0017
 58 0.0200 1.5039 0.0000 0.0000
 59 0.0200 1.8057 0.0000 0.0000
 60 0.0200 1.5012 0.0000 0.0000
 61 0.0200 1.5169 0.0000 0.0000
 62 0.0200 1.7863 0.0060 0.0060
 63 0.0200 1.4070 0.0000 0.0000
 64 0.0200 1.7505 0.0027 0.0027
 65 0.0400 2.8707 0.0008 0.0008
 66 0.0400 2.8993 0.0000 0.0000
 67 0.0400 2.4819 0.0000 0.0000
 68 0.0400 2.4199 0.0000 0.0000
 69 0.0400 3.1112 0.0035 0.0035
 70 0.0400 2.8707 0.0008 0.0008
 71 0.0400 2.4664 0.0000 0.0000
 72 0.0400 2.5162 0.0168 0.0168
 73 0.0400 2.5100 0.0000 0.0000
 74 0.0400 2.5702 0.0000 0.0000
 75 0.0400 2.9629 0.0099 0.0099
 76 0.0400 2.9169 0.0086 0.0086
 77 0.0400 2.5002 0.0004 0.0004
 78 0.0400 3.0162 0.0166 0.0166
 79 0.0400 3.0199 0.0044 0.0044
 80 0.0400 2.9629 0.0099 0.0099
 81 0.0400 3.0146 0.0064 0.0064
 82 0.0400 2.9169 0.0086 0.0086
 83 0.0400 2.5211 0.0000 0.0000
 84 0.0400 0.1811 0.0111 0.0111
 85 0.0400 2.9588 0.0068 0.0068
 86 0.0400 2.4364 0.0099 0.0099
 87 0.0400 3.2416 0.0000 0.0000
 88 0.0400 2.4128 0.0000 0.0000
 89 0.0400 2.4969 0.0000 0.0000
 90 0.0400 2.4849 0.0000 0.0000
 91 0.0400 3.1307 0.0056 0.0056
 92 0.0400 2.8451 0.0011 0.0011
 93 0.0400 2.9510 0.0000 0.0000
 94 0.0400 3.1307 0.0056 0.0056
 95 0.0400 2.6089 0.0000 0.0000
 96 0.0400 3.0313 0.0053 0.0053
 97 0.0400 3.0313 0.0053 0.0053
 98 0.0400 3.0146 0.0064 0.0064
 99 0.0400 3.1234 0.0193 0.0193
 100 0.0400 3.0503 0.0020 0.0020
 101 0.0400 2.4521 0.0000 0.0000
 102 0.0400 2.7601 0.0000 0.0000
 103 0.0400 3.0162 0.0166 0.0166
 104 0.0400 3.1024 0.0195 0.0195
 105 0.0400 3.0488 0.0171 0.0171
 106 0.0400 3.0503 0.0020 0.0020
 107 0.0400 2.4364 0.0099 0.0099
 108 0.0400 2.4983 0.0040 0.0040
 109 0.0400 3.0488 0.0171 0.0171
 110 0.0400 2.9889 0.0004 0.0004
 111 0.0400 2.4297 0.0000 0.0000
 112 0.0400 3.1024 0.0195 0.0195
 113 0.0400 2.4017 0.0000 0.0000
 114 0.0400 3.0017 0.0012 0.0012
 115 0.0400 2.2629 0.0000 0.0000
 116 0.0400 2.8451 0.0011 0.0011
 117 0.0400 2.4877 0.0317 0.0317
 118 0.0400 3.0107 0.0157 0.0157
 119 0.0400 2.5514 0.0029 0.0029
 120 0.0400 2.4854 0.0000 0.0000
 121 0.0400 3.0107 0.0157 0.0157
 122 0.0400 2.4557 0.0046 0.0046
 123 0.0400 2.5357 0.0000 0.0000
 124 0.0400 2.4069 0.0000 0.0000
 125 0.0400 2.5514 0.0029 0.0029
 126 0.0400 3.1112 0.0035 0.0035
 127 0.0400 2.3935 0.0000 0.0000
 128 0.0400 2.9889 0.0004 0.0004
 129 0.0400 2.4983 0.0040 0.0040
 130 0.0400 0.1811 0.0111 0.0111
 131 0.0400 2.9254 0.0000 0.0000
 132 0.0400 2.9971 0.0000 0.0000
 133 0.0400 2.9766 0.0000 0.0000
 134 0.0400 3.0199 0.0044 0.0044
 135 0.0400 2.5002 0.0004 0.0004
 136 0.0400 2.5162 0.0168 0.0168
 137 0.0400 2.4378 0.0000 0.0000
 138 0.0400 2.9588 0.0068 0.0068
 139 0.0400 3.1234 0.0193 0.0193
 140 0.0400 3.0017 0.0012 0.0012
 141 0.0400 2.4557 0.0046 0.0046
 142 0.0400 2.9276 0.0000 0.0000
 143 0.0400 2.1503 0.0000 0.0000
 144 0.0400 2.9220 0.0000 0.0000
 145 0.0400 2.4877 0.0317 0.0317
 146 0.0400 3.0129 0.0000 0.0000

loop_
  _restr_RIGU_atom_site_label_1
  _restr_RIGU_atom_site_label_2
  _restr_RIGU_target_weight_param
  _restr_RIGU_U13_diff
  _restr_RIGU_U23_diff
  _restr_RIGU_U33_diff
 N3A C16A 0.004000 0.001561 0.001877 0.012246
 N3A C17A 0.004000 -0.000728 0.004557 -0.006183
 N3A C18A 0.004000 0.005450 -0.008096 -0.001084
 N3A C19A 0.004000 0.007156 -0.002233 -0.007573
 N3A N3B 0.004000 0.005335 0.000793 -0.000997
 N3A Si2A 0.004000 0.004272 0.004712 -0.000936
 N3A N5A 0.004000 0.002264 0.011085 -0.001368
 N3A C30A 0.004000 -0.001150 -0.001714 0.002648
 N3A Si2B 0.004000 0.005286 -0.004003 0.000920
 N3A N5B 0.004000 0.003933 -0.014060 -0.001761
 N3A C30B 0.004000 -0.001232 0.001383 -0.000124
 C16A C17A 0.004000 0.013608 -0.003186 -0.008666
 C16A C18A 0.004000 0.022432 0.012709 -0.011066
 C16A C19A 0.004000 0.003612 -0.001261 -0.015776
 C16A Si2A 0.004000 0.012734 0.005767 -0.014204
 C16A Si2B 0.004000 0.015319 -0.006550 -0.011397
 C17A C18A 0.004000 0.073362 0.021574 -0.018740
 C17A C19A 0.004000 0.005982 0.005667 -0.007317
 C18A C19A 0.004000 0.004024 0.000265 -0.010495
 Si3A C20A 0.004000 -0.000999 0.000340 -0.015653
 Si3A C21A 0.004000 -0.002383 -0.005341 -0.009439
 Si3A C22A 0.004000 -0.003995 0.003305 -0.013406
 C20A C21A 0.004000 -0.002815 0.001517 0.002370
 C20A C22A 0.004000 0.000053 -0.002910 -0.000279
 C21A C22A 0.004000 -0.003284 0.013560 -0.002708
 N3B C16B 0.004000 -0.000235 -0.000756 0.000063
 N3B C17B 0.004000 0.001124 0.003304 -0.016760
 N3B C18B 0.004000 0.001092 -0.015418 -0.007773
 N3B C19B 0.004000 0.004755 0.006325 -0.005971
 N3B Si2A 0.004000 -0.000504 -0.005890 -0.002816
 N3B N5A 0.004000 -0.009452 -0.006909 -0.002580
 N3B C30A 0.004000 0.001645 -0.003373 0.003359
 N3B Si2B 0.004000 -0.001448 0.005002 -0.003574
 N3B N5B 0.004000 -0.012728 -0.000505 -0.004336
 N3B C30B 0.004000 -0.004067 0.004356 0.002324
 C16B C17B 0.004000 0.005642 0.006592 -0.010787
 C16B C18B 0.004000 0.002387 -0.014086 -0.009407
 C16B C19B 0.004000 0.000678 0.001791 -0.006839
 C16B Si2A 0.004000 0.006547 -0.004805 -0.005761
 C16B Si2B 0.004000 0.005678 0.003353 -0.005908
 C17B C18B 0.004000 0.017030 -0.027968 0.005959
 C17B C19B 0.004000 -0.003462 0.012417 0.001929
 C18B C19B 0.004000 0.003300 0.005347 0.005039
 Si3B C20B 0.004000 -0.000306 -0.005137 -0.013109
 Si3B C21B 0.004000 0.008936 0.003245 -0.003515
 Si3B C22B 0.004000 -0.002299 -0.008215 -0.012859
 C20B C21B 0.004000 0.008336 0.012064 0.004450
 C20B C22B 0.004000 -0.007997 -0.002415 -0.003612
 C21B C22B 0.004000 0.006982 -0.011687 0.003089
 Si2A N5A 0.004000 0.000227 -0.000633 -0.003149
 Si2A Si4A 0.004000 0.001245 0.001271 -0.002322
 Si2A N6A 0.004000 -0.002138 -0.000431 -0.002590
 Si2A C30A 0.004000 0.000344 0.001356 -0.003315
 Si2A C31A 0.004000 0.000346 0.001731 -0.001288
 Si2A Si2B 0.004000 -0.002450 0.004087 -0.004620
 N5A Si4A 0.004000 0.000485 0.001013 0.000698
 N5A C23A 0.004000 -0.013330 -0.005761 0.003376
 N5A C24A 0.004000 -0.002194 -0.001537 0.000553
 N5A C25A 0.004000 -0.000998 0.017901 0.000865
 N5A C30A 0.004000 -0.000700 0.003740 0.001871
 Si4A C23A 0.004000 -0.004624 0.007274 -0.003668
 Si4A C24A 0.004000 0.001804 -0.003129 -0.000478
 Si4A C25A 0.004000 -0.010145 0.000389 -0.008280
 C23A C24A 0.004000 -0.013518 -0.015244 0.000796
 C23A C25A 0.004000 0.001136 -0.010502 -0.000905
 C24A C25A 0.004000 0.002749 -0.025401 -0.011128
 N6A C26A 0.004000 -0.000171 -0.003601 -0.001074
 N6A C27A 0.004000 0.000193 -0.012660 -0.001046
 N6A C28A 0.004000 0.002055 0.000087 -0.003135
 N6A C29A 0.004000 -0.004025 -0.004771 0.000658
 N6A C30A 0.004000 -0.000723 -0.002051 -0.001847
 N6A C31A 0.004000 0.001216 -0.004281 -0.003445
 C26A C27A 0.004000 0.011296 -0.001705 -0.001606
 C26A C28A 0.004000 0.003075 0.002099 -0.002994
 C26A C29A 0.004000 0.002154 -0.010796 -0.002635
 C26A C30A 0.004000 0.001566 -0.000061 -0.000875
 C27A C28A 0.004000 0.024238 -0.002880 0.001446
 C27A C29A 0.004000 0.006633 -0.012354 -0.005729
 C28A C29A 0.004000 -0.007513 -0.015974 -0.004078
 C30A C31A 0.004000 0.001316 -0.001905 -0.001345
 C30A C32A 0.004000 0.003393 0.005617 -0.003828
 C30A C36A 0.004000 -0.004702 -0.004184 -0.002851
 C31A C32A 0.004000 -0.000937 0.000898 -0.002078
 C31A C33A 0.004000 0.001698 0.000866 -0.001939
 C31A C35A 0.004000 -0.003137 0.000699 0.003078
 C31A C36A 0.004000 -0.001740 -0.000258 -0.001536
 C32A C33A 0.004000 0.006591 0.002906 -0.000659
 C32A C34A 0.004000 0.014632 0.003083 -0.001306
 C32A C36A 0.004000 0.001232 0.001494 0.001198
 C33A C34A 0.004000 0.014024 0.000328 -0.002498
 C33A C35A 0.004000 0.015408 0.008895 0.004635
 C34A C35A 0.004000 0.005449 0.014897 0.003056
 C34A C36A 0.004000 -0.006274 0.011407 0.000578
 C35A C36A 0.004000 -0.008107 0.004119 -0.001422
 Si2B N5B 0.004000 -0.002530 -0.005184 -0.000158
 Si2B Si4B 0.004000 -0.002354 -0.003517 0.004263
 Si2B N6B 0.004000 -0.005844 0.003325 -0.008839
 Si2B C30B 0.004000 0.001729 0.001648 0.001502
 Si2B C31B 0.004000 0.001549 0.005555 0.000902
 N5B Si4B 0.004000 0.001057 0.000966 0.004599
 N5B C23B 0.004000 0.016595 -0.019544 -0.014920
 N5B C25B 0.004000 -0.011874 -0.002459 0.005450
 N5B C30B 0.004000 0.006480 -0.003286 -0.001172
 Si4B C23B 0.004000 0.000546 0.016617 -0.011689
 Si4B C25B 0.004000 -0.001470 -0.016303 -0.012064
 C23B C25B 0.004000 0.020014 0.007009 -0.006840
 N6B C26B 0.004000 0.001554 -0.005696 0.003519
 N6B C27B 0.004000 -0.006419 -0.001574 0.004432
 N6B C28B 0.004000 0.007635 -0.006685 -0.010589
 N6B C29B 0.004000 -0.008593 0.001247 -0.005011
 N6B C30B 0.004000 -0.004877 0.000520 0.000090
 N6B C31B 0.004000 0.001830 0.004950 0.000861
 C26B C27B 0.004000 0.004662 0.001300 -0.008705
 C26B C28B 0.004000 0.010782 -0.006161 -0.010666
 C26B C29B 0.004000 -0.005621 -0.003886 -0.011151
 C26B C30B 0.004000 -0.001377 0.001227 0.009283
 C27B C28B 0.004000 -0.006204 -0.006246 -0.002774
 C27B C29B 0.004000 0.021624 -0.000739 0.011641
 C28B C29B 0.004000 0.012366 -0.013141 0.000915
 C30B C31B 0.004000 0.002542 0.000395 -0.000483
 C30B C32B 0.004000 0.009329 0.001614 -0.004133
 C30B C36B 0.004000 -0.005485 -0.003189 -0.000927
 C31B C32B 0.004000 -0.000831 0.001978 -0.004086
 C31B C33B 0.004000 -0.000234 -0.005820 -0.005449
 C31B C35B 0.004000 0.008645 0.005073 -0.003978
 C31B C36B 0.004000 -0.000250 0.000097 0.002189
 C32B C33B 0.004000 0.005086 0.003395 0.003003
 C32B C36B 0.004000 0.005715 0.003002 0.005213
 C35B C36B 0.004000 -0.006380 -0.001492 0.000532

loop_
  _restr_U_similar_atom_site_label_1
  _restr_U_similar_atom_site_label_2
  _restr_U_similar_weight_param
 N3A C16A 0.0400
 N3A Si3B 0.0400
 N3A Si2A 0.0400
 N3A Si2B 0.0400
 C16A C17A 0.0400
 C16A C18A 0.0400
 C16A C19A 0.0400
 C16A Si3B 0.0400
 C16A C20B 0.0400
 C16A C22B 0.0400
 C17A Si3B 0.0400
 C17A C20B 0.0400
 C18A Si3B 0.0400
 C18A C21B 0.0400
 C19A Si3B 0.0400
 C19A C22B 0.0400
 Si3A C20A 0.0400
 Si3A C21A 0.0400
 Si3A C22A 0.0400
 Si3A N3B 0.0400
 Si3A C16B 0.0400
 Si3A C17B 0.0400
 Si3A C18B 0.0400
 Si3A C19B 0.0400
 C20A C16B 0.0400
 C20A C17B 0.0400
 C21A C16B 0.0400
 C21A C18B 0.0400
 C22A C16B 0.0400
 C22A C19B 0.0400
 N3B C16B 0.0400
 N3B Si2A 0.0400
 N3B Si2B 0.0400
 C16B C17B 0.0400
 C16B C18B 0.0400
 C16B C19B 0.0400
 Si3B C20B 0.0400
 Si3B C21B 0.0400
 Si3B C22B 0.0400
 Si2A N5A 0.0400
 Si2A C30A 0.0400
 Si2A Si2B 0.0400
 Si2A N5B 0.0400
 Si2A N6B 0.0400
 Si2A C30B 0.0400
 N5A Si4A 0.0400
 N5A N6B 0.0400
 N5A C26B 0.0400
 N5A C30B 0.0400
 Si4A C23A 0.0400
 Si4A C24A 0.0400
 Si4A C25A 0.0400
 Si4A N6B 0.0400
 Si4A C26B 0.0400
 Si4A C27B 0.0400
 Si4A C28B 0.0400
 Si4A C29B 0.0400
 Si4A C30B 0.0400
 C23A C27B 0.0400
 C24A C26B 0.0400
 C24A C28B 0.0400
 C25A C26B 0.0400
 C25A C29B 0.0400
 N6A C26A 0.0400
 N6A C30A 0.0400
 N6A Si2B 0.0400
 N6A N5B 0.0400
 N6A Si4B 0.0400
 C26A C27A 0.0400
 C26A C28A 0.0400
 C26A C29A 0.0400
 C26A N5B 0.0400
 C26A Si4B 0.0400
 C26A C25B 0.0400
 C27A Si4B 0.0400
 C27A C23B 0.0400
 C28A Si4B 0.0400
 C29A Si4B 0.0400
 C29A C25B 0.0400
 C30A C31A 0.0400
 C30A Si2B 0.0400
 C30A N5B 0.0400
 C30A Si4B 0.0400
 C31A C32A 0.0400
 C31A C36A 0.0400
 C31A C31B 0.0400
 C31A C36B 0.0400
 C32A C33A 0.0400
 C32A C31B 0.0400
 C32A C32B 0.0400
 C32A C33B 0.0400
 C33A C34A 0.0400
 C33A C32B 0.0400
 C33A C33B 0.0400
 C34A C35A 0.0400
 C34A C33B 0.0400
 C34A C35B 0.0400
 C35A C36A 0.0400
 C35A C35B 0.0400
 C35A C36B 0.0400
 C36A C35B 0.0400
 C36A C36B 0.0400
 Si2B N5B 0.0400
 Si2B C30B 0.0400
 N5B Si4B 0.0400
 Si4B C23B 0.0400
 Si4B C25B 0.0400
 N6B C26B 0.0400
 N6B C30B 0.0400
 C26B C27B 0.0400
 C26B C28B 0.0400
 C26B C29B 0.0400
 C30B C31B 0.0400
 C31B C32B 0.0400
 C31B C36B 0.0400
 C32B C33B 0.0400
 C35B C36B 0.0400

loop_
  _twin_individual_id
  _twin_individual_mass_fraction_refined
 1 0.84(6)
 2 0.16(6)

