data_XRW-CuKb
_audit_block_doi                 10.5517/ccdc.csd.cc2h7blp
_database_code_depnum_ccdc_archive 'CCDC 2300962'
loop_
_citation_id
_citation_doi
_citation_year
1 10.1002/chem.202303762 2024
loop_
_audit_author_name
_audit_author_address
'Florian Meurer'
;
University of Regensburg
Germany
;
_audit_update_record             
;
2023-12-19 deposited with the CCDC.	2024-11-07 downloaded from the CCDC.
;
_audit_creation_date             2023-06-19
_audit_creation_method           
;
Olex2 1.5-alpha
(compiled 2023.03.06 svn.rbb2c1857 for OlexSys, GUI svn.r6748)
;
_chemical_formula_moiety         'C17 H29 Ni P3'
_chemical_formula_sum            'C17 H29 Ni P3'
_chemical_formula_weight         385.034
loop_
_atom_type_symbol
_atom_type_scat_dispersion_real
_atom_type_scat_dispersion_imag
_atom_type_scat_source
_atom_type_scat_dispersion_source
C 0.01470 0.00730 'NoSpherA2: Chem.Sci. 2021, DOI:10.1039/D0SC05526C' custom
H 0.00000 0.00000 'NoSpherA2: Chem.Sci. 2021, DOI:10.1039/D0SC05526C' custom
Ni -1.743(19) 3.638(10) 'NoSpherA2: Chem.Sci. 2021, DOI:10.1039/D0SC05526C'
custom
P 0.26530 0.35780 'NoSpherA2: Chem.Sci. 2021, DOI:10.1039/D0SC05526C' custom

_space_group_crystal_system      monoclinic
_space_group_IT_number           14
_space_group_name_H-M_alt        'P 1 21/c 1'
_space_group_name_Hall           '-P 2ybc'
loop_
_space_group_symop_id
_space_group_symop_operation_xyz
1 x,y,z
2 -x,y+1/2,-z+1/2
3 -x,-y,-z
4 x,-y-1/2,z-1/2

_symmetry_Int_Tables_number      14
_cell_length_a                   9.2696(2)
_cell_length_b                   14.5952(2)
_cell_length_c                   14.5316(1)
_cell_angle_alpha                90
_cell_angle_beta                 105.978(1)
_cell_angle_gamma                90
_cell_volume                     1890.05(5)
_cell_formula_units_Z            4
_cell_measurement_temperature    100.15
_cell_measurement_reflns_used    5182
_cell_measurement_theta_min      3.96
_cell_measurement_theta_max      74.77
_exptl_absorpt_coefficient_mu    7.848
_exptl_crystal_density_diffrn    1.353
_exptl_crystal_F_000             813.613
_exptl_crystal_size_max          0.27
_exptl_crystal_size_mid          0.2
_exptl_crystal_size_min          0.15
_diffrn_reflns_number            97248
_diffrn_reflns_theta_full        56.6504
_diffrn_measured_fraction_theta_full 56.6504
_exptl_absorpt_correction_type   multi-scan
_exptl_absorpt_process_details   
;

CrysAlisPro 1.171.41.89a (Rigaku Oxford Diffraction, 2020)
Empirical absorption correction using spherical harmonics,
implemented in SCALE3 ABSPACK scaling algorithm.
;
_exptl_crystal_colour            'intense yellow'
_exptl_crystal_description       block
_diffrn_reflns_av_R_equivalents  0.0418
_diffrn_reflns_av_unetI/netI     0.0133
_diffrn_reflns_Laue_measured_fraction_full 1.0000
_diffrn_reflns_Laue_measured_fraction_max 0.9971
_diffrn_reflns_limit_h_max       12
_diffrn_reflns_limit_h_min       -12
_diffrn_reflns_limit_k_max       20
_diffrn_reflns_limit_k_min       -20
_diffrn_reflns_limit_l_max       20
_diffrn_reflns_limit_l_min       -20
_diffrn_reflns_point_group_measured_fraction_full 1.0000
_diffrn_reflns_point_group_measured_fraction_max 0.9971
_diffrn_reflns_theta_max         74.81
_diffrn_reflns_theta_min         3.96
_diffrn_ambient_environment      N~2~
_diffrn_ambient_temperature      100.00(10)
_diffrn_detector                 'CCD plate'
_diffrn_detector_area_resol_mean 4.2047
_diffrn_detector_type            TitanS2
_diffrn_measurement_details      
;
List of Runs (angles in degrees, time in seconds):

  # Type    Start    End  Width  t~exp~   \w     \q     \k     \f   Frames
#--------------------------------------------------------------------------
  1  \w    -80.00  24.00   0.50    5.00    --  -40.59  91.00 -39.00  208
  2  \w     -3.00  80.00   0.50    5.00    --   40.59 -91.00-152.00  166
  3  \w     20.00 107.00   0.50   15.00    --  109.00 -91.00-152.00  174
  4  \w    104.00 178.00   0.50   15.00    --  109.00  91.00 -39.00  148
  5  \w     -5.00  31.00   0.50    5.00    --   34.00  87.00 135.04   72
  6  \w    -87.00  -6.00   0.50    5.00    --  -40.59 125.00  30.00  162
  7  \w   -127.00 -82.00   0.50    5.00    --  -40.59 -99.00   0.00   90
  8  \w   -119.00  -7.00   0.50    5.00    --  -40.59 -37.00-180.00  224
  9  \w   -119.00  -7.00   0.50    5.00    --  -40.59 -37.00 -30.00  224
 10  \w   -118.00  -9.00   0.50    5.00    --  -40.59 -57.00  90.00  218
 11  \w      3.00  29.00   0.50    5.00    --   42.00  90.00 -67.72   52
 12  \w     13.00  42.00   0.50    5.00    --   50.00  81.00-113.82   58
 13  \w     14.00  42.00   0.50    5.00    --   50.00  79.00 -55.41   56
 14  \w     13.00  42.00   0.50    5.00    --   50.00  81.00-163.61   58
 15  \w     14.00  42.00   0.50    5.00    --   50.00  79.00  30.23   56
 16  \w     14.00  42.00   0.50    5.00    --   50.00  79.00 129.11   56
 17  \w     13.00  42.00   0.50    5.00    --   50.00  81.00  71.59   58
 18  \w     32.00 147.00   0.50    5.00    --   66.00  71.00  50.99  230
 19  \w     37.00 150.00   0.50    5.00    --   70.00  68.00 -64.76  226
 20  \w     36.00 150.00   0.50    5.00    --   70.00  69.00 -26.95  228
 21  \w     36.00 151.00   0.50    5.00    --   70.00  71.00 137.09  230
 22  \w     36.00 150.00   0.50    5.00    --   70.00  69.00-163.88  228
 23  \w     36.00 151.00   0.50    5.00    --   70.00  71.00-115.35  230
 24  \w     36.00 150.00   0.50    5.00    --   70.00  69.00 -91.11  228
 25  \w     36.00 150.00   0.50    5.00    --   70.00  69.00  86.66  228
 26  \w     40.00 154.00   0.50    5.00    --   74.00  69.00  12.75  228
 27  \w     41.00 154.00   0.50    5.00    --   74.00  67.00-143.48  226
 28  \w     44.00 158.00   0.50   15.00    --   78.00  70.00 150.26  228
 29  \w     50.00 161.00   0.50   15.00    --   82.00  64.00 105.51  222
 30  \w     49.00 161.00   0.50   15.00    --   82.00  66.00  34.18  224
 31  \w     49.00 162.00   0.50   15.00    --   82.00  68.00 160.87  226
 32  \w     52.00 166.00   0.50   15.00    --   86.00  70.00 -91.64  228
 33  \w     54.00 165.00   0.50   15.00    --   86.00  64.00 -61.53  222
 34  \w     57.00 169.00   0.50   15.00    --   90.00  65.00 -22.12  224
 35  \w     56.00 170.00   0.50   15.00    --   90.00  69.00  52.51  228
 36  \w     56.00 171.00   0.50   15.00    --   90.00  71.00  66.80  230
 37  \w     60.00 175.00   0.50   15.00    --   94.00  71.00-150.37  230
 38  \w     67.00  93.00   0.50   15.00    --   98.00  64.00 134.12   52
 39  \w     64.00  90.00   0.50   15.00    --   98.00  69.00-178.36   52
 40  \w    147.00 176.00   0.50   15.00    --  109.00  49.00 -86.07   58
 41  \w     71.00 107.00   0.50   15.00    --  109.00-111.00-150.00   72
 42  \w     68.00 109.00   0.50   15.00    --  109.00-111.00 120.00   82
 43  \w     27.00  52.00   0.50   15.00    --  109.00-111.00-150.00   50
 44  \w    140.00 175.00   0.50   15.00    --  109.00  61.00  60.00   70
 45  \w    146.00 178.00   0.50   15.00    --  109.00  61.00 120.00   64
 46  \w     78.00 160.00   0.50   15.00    --  109.00  60.00  13.23  164
 47  \w     78.00 138.00   0.50   15.00    --  109.00  61.00 150.00  120
 48  \w    122.00 178.00   0.50   15.00    --  109.00  61.00-120.00  112
 49  \w     78.00 104.00   0.50   15.00    --  109.00  61.00 120.00   52
 50  \w    113.00 155.00   0.50   15.00    --  109.00  68.00-140.77   84
 51  \w     76.00 104.00   0.50   15.00    --  109.00  68.00-140.77   56
 52  \w     43.00 109.00   0.50   15.00    --  109.00-111.00-180.00  132
 53  \w     78.00 104.00   0.50   15.00    --  109.00  61.00-120.00   52
 54  \w     81.00 123.00   0.50   15.00    --  109.00  61.00  60.00   84
 55  \w     41.00  99.00   0.50   15.00    --  109.00 -77.00 -90.00  116
 56  \w     36.00  63.00   0.50   15.00    --  109.00-111.00  60.00   54
 57  \w     67.00 109.00   0.50   15.00    --  109.00-111.00  60.00   84
 58  \w     80.00 137.00   0.50   15.00    --  109.00  59.00 131.46  114
 59  \w    115.00 140.00   0.50   15.00    --  109.00 -45.00-120.00   50
 60  \w     79.00 133.00   0.50   15.00    --  109.00  49.00 -86.07  108
 61  \w     60.00  89.00   0.50   15.00    --  109.00 -45.00-120.00   58
 62  \w     35.00  78.00   0.50   15.00    --  109.00-111.00-120.00   86
 63  \w     76.00 159.00   0.50   15.00    --  109.00  66.00  35.04  166
 64  \w     76.00 163.00   0.50   15.00    --  109.00  65.00-178.67  174
 65  \w     79.00 107.00   0.50   15.00    --  109.00-111.00 -60.00   56
 66  \w     31.00 109.00   0.50   15.00    --  109.00-111.00  30.00  156
 67  \w    105.00 137.00   0.50   15.00    --  109.00 -45.00  60.00   64
 68  \w     36.00  86.00   0.50   15.00    --  109.00 -45.00  60.00  100
 69  \w     73.00 109.00   0.50   15.00    --  109.00-111.00  90.00   72
 70  \w     75.00 101.00   0.50   15.00    --  109.00-111.00   0.00   52
 71  \w     28.00  57.00   0.50   15.00    --  109.00-111.00   0.00   58
 72  \w     78.00 140.00   0.50   15.00    --  109.00  45.00 130.78  124
 73  \w    153.00 178.00   0.50   15.00    --  109.00  61.00   0.00   50
 74  \w     82.00 135.00   0.50   15.00    --  109.00  61.00   0.00  106
 75  \w    134.00 177.00   0.50   15.00    --  109.00  70.00  67.99   86
 76  \w    152.00 164.50   0.50   15.00    --  109.00  61.00 -90.00   25
;
_diffrn_measurement_device       'four-circle diffractometer'
_diffrn_measurement_device_type  'SuperNova, Dualflex, TitanS2'
_diffrn_measurement_method       '\w scans'
_diffrn_orient_matrix_type       
'CrysAlisPro convention (1999,Acta A55,543-557)'
_diffrn_orient_matrix_UB_11      -0.0622756000
_diffrn_orient_matrix_UB_12      0.0087444000
_diffrn_orient_matrix_UB_13      0.0765129000
_diffrn_orient_matrix_UB_21      0.0621268000
_diffrn_orient_matrix_UB_22      0.0871619000
_diffrn_orient_matrix_UB_23      0.0187656000
_diffrn_orient_matrix_UB_31      -0.1291035000
_diffrn_orient_matrix_UB_32      0.0377518000
_diffrn_orient_matrix_UB_33      -0.0610718000
_diffrn_radiation_monochromator  mirror
_diffrn_radiation_probe          x-ray
_diffrn_radiation_type           'Cu K\b'
_diffrn_radiation_wavelength     1.39222
_diffrn_source                   'micro-focus sealed X-ray tube'
_diffrn_source_type              'SuperNova (Cu) X-ray Source'
_reflns_Friedel_coverage         0.0
_reflns_limit_h_max              12
_reflns_limit_h_min              -12
_reflns_limit_k_max              20
_reflns_limit_k_min              0
_reflns_limit_l_max              20
_reflns_limit_l_min              0
_reflns_number_gt                5176
_reflns_number_total             5248
_exptl_absorpt_correction_T_max  1.00000
_exptl_absorpt_correction_T_min  0.67203
_reflns_odcompleteness_completeness 89.85
_reflns_odcompleteness_iscentric 1
_reflns_odcompleteness_theta     87.10
_reflns_threshold_expression     I>=2u(I)
_computing_cell_refinement       'CrysAlisPro 1.171.41.89a (Rigaku OD, 2020)'
_computing_data_collection       'CrysAlisPro 1.171.41.89a (Rigaku OD, 2020)'
_computing_data_reduction        'CrysAlisPro 1.171.41.89a (Rigaku OD, 2020)'
_computing_molecular_graphics    'Olex2 1.5-alpha (Dolomanov et al., 2009)'
_computing_publication_material  'Olex2 1.5-alpha (Dolomanov et al., 2009)'
_computing_structure_refinement  'olex2.refine 1.5-alpha (Bourhis et al., 2015)'
_computing_structure_solution    'SHELXT 2014/5 (Sheldrick, 2014)'
_refine_diff_density_max         0.126
_refine_diff_density_min         -0.337
_refine_diff_density_rms         0.0356
_refine_ls_d_res_high            0.7214
_refine_ls_d_res_low             10.0921
_refine_ls_goodness_of_fit_ref   1.49945520
_refine_ls_hydrogen_treatment    refall
_refine_ls_matrix_type           full
_refine_ls_number_constraints    0
_refine_ls_number_parameters     528
_refine_ls_number_reflns         5253
_refine_ls_number_restraints     0
_refine_ls_R_factor_all          0.01124989
_refine_ls_R_factor_gt           0.01675649
_refine_ls_restrained_S_all      1.49945520
_refine_ls_shift/su_max          0.0006
_refine_ls_shift/su_mean         0.0000
_refine_ls_structure_factor_coef Fsqd
_refine_ls_weighting_details     w=1/[\s]
_refine_ls_weighting_scheme      calc
_refine_ls_wR_factor_gt          0.01007464
_refine_ls_wR_factor_ref         0.02026695
_olex2_refinement_description    
;

;
_atom_sites_solution_primary     dual
loop_
_atom_site_label
_atom_site_type_symbol
_atom_site_fract_x
_atom_site_fract_y
_atom_site_fract_z
_atom_site_U_iso_or_equiv
_atom_site_adp_type
_atom_site_occupancy
_atom_site_refinement_flags_posn
Ni01 Ni 0.481943(9) 0.660059(6) 0.769814(6) 0.01155(6) Uani 1.000000 .
P002 P 0.50092(5) 0.76284(3) 0.88678(3) 0.01971(13) Uani 1.000000 .
P003 P 0.28134(5) 0.72771(3) 0.79919(3) 0.01983(13) Uani 1.000000 .
P004 P 0.40604(5) 0.63087(3) 0.90110(3) 0.02230(14) Uani 1.000000 .
C005 C 0.52342(6) 0.53915(4) 0.70755(4) 0.01318(10) Uani 1.000000 .
H005 H 0.4956(11) 0.4721(6) 0.7274(7) 0.029(2) Uani 1.000000 .
C006 C 0.66366(6) 0.58476(4) 0.75181(4) 0.01271(10) Uani 1.000000 .
C007 C 0.51169(6) 0.67812(4) 0.63485(4) 0.01193(10) Uani 1.000000 .
H007 H 0.4718(11) 0.7360(6) 0.5886(7) 0.028(2) Uani 1.000000 .
C008 C 0.65639(6) 0.67363(4) 0.70417(4) 0.01182(10) Uani 1.000000 .
C009 C 0.27547(6) 0.57201(4) 0.57101(4) 0.01369(11) Uani 1.000000 .
C00A C 0.77023(6) 0.75043(4) 0.70552(4) 0.01409(11) Uani 1.000000 .
C00B C 0.42907(6) 0.59605(4) 0.63614(4) 0.01187(10) Uani 1.000000 .
C00C C 0.78638(7) 0.53730(4) 0.83078(4) 0.01619(11) Uani 1.000000 .
C00D C 0.87978(7) 0.77122(5) 0.80332(5) 0.01854(12) Uani 1.000000 .
H00a H 0.8202(12) 0.7893(7) 0.8554(7) 0.035(3) Uani 1.000000 .
H00b H 0.9539(12) 0.7142(7) 0.8324(7) 0.036(3) Uani 1.000000 .
H00c H 0.9490(13) 0.8298(7) 0.7961(8) 0.038(3) Uani 1.000000 .
C00E C 0.85934(8) 0.72411(5) 0.63394(5) 0.01992(12) Uani 1.000000 .
H00d H 0.9244(13) 0.6625(7) 0.6547(8) 0.039(3) Uani 1.000000 .
H00e H 0.7851(13) 0.7142(8) 0.5625(8) 0.042(3) Uani 1.000000 .
H00f H 0.9385(13) 0.7786(8) 0.6292(8) 0.039(3) Uani 1.000000 .
C00F C 0.68723(8) 0.84089(4) 0.67039(5) 0.01848(12) Uani 1.000000 .
H00g H 0.6255(13) 0.8391(6) 0.5972(8) 0.036(3) Uani 1.000000 .
H00h H 0.6109(12) 0.8600(7) 0.7128(8) 0.036(3) Uani 1.000000 .
H00i H 0.7680(13) 0.8964(7) 0.6778(9) 0.045(3) Uani 1.000000 .
C00G C 0.92986(8) 0.52511(5) 0.79815(5) 0.02220(13) Uani 1.000000 .
H00j H 0.9042(13) 0.4868(8) 0.7311(8) 0.045(3) Uani 1.000000 .
H00k H 0.9821(13) 0.5898(8) 0.7888(9) 0.046(3) Uani 1.000000 .
H00l H 1.0123(12) 0.4850(9) 0.8505(8) 0.047(3) Uani 1.000000 .
C00H C 0.18558(7) 0.65852(4) 0.53203(5) 0.01822(12) Uani 1.000000 .
H00m H 0.1713(13) 0.7008(7) 0.5905(8) 0.041(3) Uani 1.000000 .
H00n H 0.2395(13) 0.6986(9) 0.4889(8) 0.047(3) Uani 1.000000 .
H00o H 0.0751(12) 0.6398(8) 0.4876(8) 0.041(3) Uani 1.000000 .
C00I C 0.82144(8) 0.58757(5) 0.92768(4) 0.02049(12) Uani 1.000000 .
H00p H 0.8504(16) 0.6586(7) 0.9241(9) 0.048(3) Uani 1.000000 .
H00q H 0.7241(13) 0.5837(9) 0.9559(8) 0.049(3) Uani 1.000000 .
H00r H 0.9142(13) 0.5534(9) 0.9791(8) 0.051(3) Uani 1.000000 .
C00J C 0.18741(7) 0.51459(5) 0.62522(5) 0.02188(13) Uani 1.000000 .
H00s H 0.2448(14) 0.4494(8) 0.6501(9) 0.051(3) Uani 1.000000 .
H00t H 0.1726(14) 0.5523(8) 0.6869(8) 0.045(3) Uani 1.000000 .
H00u H 0.0779(12) 0.4981(8) 0.5793(9) 0.045(3) Uani 1.000000 .
C00K C 0.29766(8) 0.51571(5) 0.48634(5) 0.02212(13) Uani 1.000000 .
H00v H 0.3587(13) 0.5558(9) 0.4447(8) 0.045(3) Uani 1.000000 .
H00w H 0.3620(13) 0.4535(7) 0.5115(8) 0.044(3) Uani 1.000000 .
H00x H 0.1908(12) 0.4960(8) 0.4394(8) 0.042(3) Uani 1.000000 .
C00L C 0.73443(9) 0.44064(5) 0.84980(6) 0.02560(14) Uani 1.000000 .
H00y H 0.6340(13) 0.4428(8) 0.8770(8) 0.043(3) Uani 1.000000 .
H H 0.7129(14) 0.3982(7) 0.7858(8) 0.047(3) Uani 1.000000 .
Ha H 0.8239(13) 0.4088(8) 0.9059(9) 0.048(3) Uani 1.000000 .

loop_
_atom_site_anharm_GC_C_label
_atom_site_anharm_GC_C_111
_atom_site_anharm_GC_C_112
_atom_site_anharm_GC_C_113
_atom_site_anharm_GC_C_122
_atom_site_anharm_GC_C_123
_atom_site_anharm_GC_C_133
_atom_site_anharm_GC_C_222
_atom_site_anharm_GC_C_223
_atom_site_anharm_GC_C_233
_atom_site_anharm_GC_C_333
P002 -0.0000002(2) 0.00000007(6) -0.00000008(7) -0.00000001(4) 0.00000002(3)
-0.00000009(4) -0.00000004(5) 0.00000006(3) 0.00000006(3) -0.00000005(5)
P003 -0.0000001(2) 0.00000015(7) 0.00000005(8) -0.00000001(4) 0.00000000(3)
-0.00000001(5) -0.00000004(5) 0.00000002(3) 0.00000000(3) -0.00000002(5)
P004 -0.00000028(11) 0.00000002(3) -0.00000019(4) -0.00000002(2)
0.000000005(14) -0.00000023(2) -0.00000003(2) -0.000000013(12) -0.000000007(12)
-0.00000003(2)

loop_
_atom_site_anharm_GC_D_label
_atom_site_anharm_GC_D_1111
_atom_site_anharm_GC_D_1112
_atom_site_anharm_GC_D_1113
_atom_site_anharm_GC_D_1122
_atom_site_anharm_GC_D_1123
_atom_site_anharm_GC_D_1133
_atom_site_anharm_GC_D_1222
_atom_site_anharm_GC_D_1223
_atom_site_anharm_GC_D_1233
_atom_site_anharm_GC_D_1333
_atom_site_anharm_GC_D_2222
_atom_site_anharm_GC_D_2223
_atom_site_anharm_GC_D_2233
_atom_site_anharm_GC_D_2333
_atom_site_anharm_GC_D_3333
P002 0.00000000(2) 0.000000000(5) 0.000000001(6) -0.000000011(2)
0.0000000014(19) -0.000000004(3) 0.000000000(2) -0.0000000041(12)
0.0000000003(13) -0.000000001(3) -0.000000011(3) -0.0000000003(14)
-0.0000000038(10) -0.0000000001(14) -0.000000006(3)
P003 0.00000001(2) 0.000000001(7) -0.000000002(8) -0.000000008(3)
-0.000000000(2) -0.000000005(4) -0.000000000(2) -0.0000000032(12)
-0.0000000007(14) -0.000000002(3) -0.000000008(3) -0.0000000003(14)
-0.0000000036(10) 0.0000000001(14) -0.000000007(3)
P004 -0.000000000(12) 0.000000001(3) -0.000000001(4) -0.0000000059(13)
0.0000000011(11) -0.0000000032(18) 0.0000000024(11) -0.0000000024(6)
-0.0000000001(6) 0.0000000011(13) -0.0000000095(14) 0.0000000005(6)
-0.0000000030(5) 0.0000000007(7) -0.0000000069(14)

loop_
_atom_site_dispersion_label
_atom_site_dispersion_real
_atom_site_dispersion_imag
Ni01 -1.743(19) 3.638(10)

loop_
_atom_site_aniso_label
_atom_site_aniso_U_11
_atom_site_aniso_U_22
_atom_site_aniso_U_33
_atom_site_aniso_U_12
_atom_site_aniso_U_13
_atom_site_aniso_U_23
Ni01 0.01013(7) 0.01532(7) 0.00885(7) 0.00084(3) 0.00204(3) -0.00058(3)
P002 0.0199(3) 0.0242(3) 0.0158(2) -0.00188(19) 0.0062(2) -0.00906(19)
P003 0.0140(3) 0.0293(3) 0.0166(3) 0.00561(19) 0.0050(2) -0.00217(19)
P004 0.0289(3) 0.0265(3) 0.0150(3) 0.0020(2) 0.0119(2) 0.0038(2)
C005 0.0126(2) 0.0136(3) 0.0118(2) 0.00002(19) 0.00088(19) -0.00033(19)
H005 0.032(6) 0.014(5) 0.039(6) -0.003(4) 0.003(5) 0.005(4)
C006 0.0103(2) 0.0150(2) 0.0115(2) 0.00181(19) 0.00083(19) -0.00064(19)
C007 0.0106(2) 0.0150(2) 0.0094(2) -0.00056(19) 0.00156(19) 0.0006(2)
H007 0.021(6) 0.026(5) 0.034(6) -0.005(4) 0.005(5) 0.010(5)
C008 0.0091(2) 0.0153(2) 0.0105(2) -0.00020(18) 0.00168(19) -0.00120(19)
C009 0.0108(2) 0.0175(3) 0.0115(2) -0.00211(19) 0.00085(19) 0.00008(19)
C00A 0.0107(2) 0.0170(3) 0.0139(2) -0.00180(19) 0.0022(2) -0.0021(2)
C00B 0.0103(2) 0.0144(2) 0.0099(2) -0.00087(19) 0.00105(19) -0.00062(18)
C00C 0.0142(3) 0.0180(3) 0.0139(2) 0.0038(2) -0.0003(2) -0.0000(2)
C00D 0.0142(3) 0.0214(3) 0.0175(3) -0.0020(2) 0.0003(2) -0.0035(2)
H00a 0.035(7) 0.042(7) 0.031(6) 0.003(5) 0.011(5) -0.011(5)
H00b 0.024(6) 0.040(7) 0.034(6) 0.003(5) -0.007(5) -0.002(5)
H00c 0.035(7) 0.035(6) 0.045(7) -0.013(5) 0.011(6) -0.002(5)
C00E 0.0160(3) 0.0259(3) 0.0195(3) -0.0030(2) 0.0077(2) -0.0029(2)
H00d 0.038(7) 0.040(7) 0.047(8) 0.013(5) 0.024(6) 0.004(5)
H00e 0.042(7) 0.057(8) 0.029(6) -0.001(6) 0.015(6) -0.004(6)
H00f 0.035(7) 0.049(7) 0.039(7) -0.011(6) 0.022(6) -0.005(6)
C00F 0.0172(3) 0.0169(3) 0.0193(3) -0.0023(2) 0.0017(2) -0.0004(2)
H00g 0.042(7) 0.024(6) 0.036(7) 0.000(5) -0.000(6) 0.000(4)
H00h 0.033(7) 0.032(6) 0.051(8) 0.011(5) 0.022(6) 0.003(5)
H00i 0.036(7) 0.036(6) 0.058(8) -0.020(6) 0.007(6) 0.007(6)
C00G 0.0160(3) 0.0289(3) 0.0196(3) 0.0091(2) 0.0015(2) -0.0014(3)
H00j 0.031(7) 0.065(9) 0.039(7) 0.013(6) 0.009(6) -0.011(6)
H00k 0.045(8) 0.038(7) 0.059(8) 0.002(6) 0.022(7) 0.002(6)
H00l 0.028(7) 0.073(9) 0.035(7) 0.023(6) -0.002(5) 0.010(6)
C00H 0.0127(3) 0.0224(3) 0.0172(3) 0.0004(2) 0.0002(2) 0.0033(2)
H00m 0.044(7) 0.036(7) 0.038(7) 0.014(6) 0.002(6) -0.016(6)
H00n 0.036(7) 0.063(8) 0.040(7) 0.008(6) 0.005(6) 0.024(6)
H00o 0.024(6) 0.044(7) 0.043(7) -0.002(5) -0.011(5) 0.007(6)
C00I 0.0193(3) 0.0264(3) 0.0124(3) 0.0050(2) -0.0012(2) -0.0003(2)
H00p 0.077(10) 0.030(7) 0.030(7) -0.009(6) 0.004(7) -0.006(5)
H00q 0.048(8) 0.074(9) 0.032(7) -0.008(7) 0.025(6) -0.022(6)
H00r 0.044(8) 0.072(9) 0.027(6) 0.023(7) -0.004(6) -0.007(6)
C00J 0.0155(3) 0.0288(3) 0.0188(3) -0.0082(2) 0.0004(2) 0.0056(3)
H00s 0.047(8) 0.038(7) 0.065(9) -0.008(6) 0.010(7) 0.026(6)
H00t 0.051(8) 0.062(8) 0.026(6) -0.022(7) 0.017(6) 0.001(6)
H00u 0.024(6) 0.057(8) 0.052(7) -0.018(6) 0.005(6) 0.015(6)
C00K 0.0175(3) 0.0288(3) 0.0175(3) -0.0015(3) 0.0004(2) -0.0086(2)
H00v 0.040(7) 0.070(9) 0.029(6) -0.012(6) 0.019(6) -0.010(6)
H00w 0.041(7) 0.034(6) 0.049(8) 0.010(6) 0.000(6) -0.015(6)
H00x 0.027(6) 0.054(8) 0.035(7) -0.003(5) -0.008(5) -0.014(6)
C00L 0.0251(3) 0.0200(3) 0.0256(3) 0.0025(3) -0.0032(3) 0.0060(3)
H00y 0.038(7) 0.041(7) 0.048(8) 0.001(6) 0.006(6) 0.017(6)
H 0.053(8) 0.032(7) 0.043(7) 0.008(6) -0.005(6) 0.001(6)
Ha 0.041(7) 0.040(7) 0.053(8) 0.005(6) -0.004(6) 0.014(6)

loop_
_geom_bond_atom_site_label_1
_geom_bond_atom_site_label_2
_geom_bond_distance
_geom_bond_site_symmetry_2
_geom_bond_publ_flag
Ni01 P002 2.2373(4) . ?
Ni01 P003 2.2476(4) . ?
Ni01 P004 2.2483(4) . ?
Ni01 C005 2.0669(6) . ?
Ni01 C006 2.0872(5) . ?
Ni01 C007 2.0712(5) . ?
Ni01 C008 2.1008(6) . ?
Ni01 C00B 2.0885(5) . ?
P002 P003 2.1446(6) . ?
P002 P004 2.1511(6) . ?
P003 P004 2.1411(6) . ?
C005 H005 1.072(9) . ?
C005 C006 1.4445(8) . ?
C005 C00B 1.4254(8) . ?
C006 C008 1.4631(8) . ?
C006 C00C 1.5401(8) . ?
C007 H007 1.080(9) . ?
C007 C008 1.4402(8) . ?
C007 C00B 1.4246(8) . ?
C008 C00A 1.5359(8) . ?
C009 C00B 1.5180(8) . ?
C009 C00H 1.5328(8) . ?
C009 C00J 1.5307(8) . ?
C009 C00K 1.5397(9) . ?
C00A C00D 1.5325(8) . ?
C00A C00E 1.5443(8) . ?
C00A C00F 1.5426(9) . ?
C00C C00G 1.5404(9) . ?
C00C C00I 1.5410(9) . ?
C00C C00L 1.5401(9) . ?
C00D H00a 1.085(10) . ?
C00D H00b 1.088(10) . ?
C00D H00c 1.091(10) . ?
C00E H00d 1.079(10) . ?
C00E H00e 1.085(11) . ?
C00E H00f 1.097(10) . ?
C00F H00g 1.060(11) . ?
C00F H00h 1.095(10) . ?
C00F H00i 1.088(10) . ?
C00G H00j 1.091(11) . ?
C00G H00k 1.087(12) . ?
C00G H00l 1.089(10) . ?
C00H H00m 1.087(10) . ?
C00H H00n 1.076(11) . ?
C00H H00o 1.085(10) . ?
C00I H00p 1.076(11) . ?
C00I H00q 1.090(10) . ?
C00I H00r 1.092(11) . ?
C00J H00s 1.102(12) . ?
C00J H00t 1.092(11) . ?
C00J H00u 1.077(11) . ?
C00K H00v 1.103(11) . ?
C00K H00w 1.093(11) . ?
C00K H00x 1.076(10) . ?
C00L H00y 1.108(12) . ?
C00L H 1.090(11) . ?
C00L Ha 1.093(11) . ?

loop_
_geom_angle_atom_site_label_1
_geom_angle_atom_site_label_2
_geom_angle_atom_site_label_3
_geom_angle
_geom_angle_site_symmetry_1
_geom_angle_site_symmetry_3
_geom_angle_publ_flag
P003 Ni01 P002 57.133(16) . . ?
P004 Ni01 P002 57.312(17) . . ?
P004 Ni01 P003 56.879(16) . . ?
C005 Ni01 P002 156.90(2) . . ?
C005 Ni01 P003 136.18(2) . . ?
C005 Ni01 P004 110.43(2) . . ?
C006 Ni01 P002 123.43(2) . . ?
C006 Ni01 P003 173.49(2) . . ?
C006 Ni01 P004 117.29(2) . . ?
C006 Ni01 C005 40.69(2) . . ?
C007 Ni01 P002 129.12(2) . . ?
C007 Ni01 P003 117.17(2) . . ?
C007 Ni01 P004 169.09(2) . . ?
C007 Ni01 C005 66.73(2) . . ?
C007 Ni01 C006 68.03(2) . . ?
C008 Ni01 P002 111.862(19) . . ?
C008 Ni01 P003 145.62(2) . . ?
C008 Ni01 P004 149.65(2) . . ?
C008 Ni01 C005 67.82(2) . . ?
C008 Ni01 C006 40.89(2) . . ?
C008 Ni01 C007 40.38(2) . . ?
C00B Ni01 P002 162.89(2) . . ?
C00B Ni01 P003 112.242(19) . . ?
C00B Ni01 P004 131.02(2) . . ?
C00B Ni01 C005 40.12(2) . . ?
C00B Ni01 C006 68.82(2) . . ?
C00B Ni01 C007 40.05(2) . . ?
C00B Ni01 C008 68.46(2) . . ?
P003 P002 Ni01 61.676(16) . . ?
P004 P002 Ni01 61.601(16) . . ?
P004 P002 P003 59.79(2) . . ?
P002 P003 Ni01 61.191(16) . . ?
P004 P003 Ni01 61.576(16) . . ?
P004 P003 P002 60.25(2) . . ?
P002 P004 Ni01 61.087(16) . . ?
P003 P004 Ni01 61.545(16) . . ?
P003 P004 P002 59.95(2) . . ?
H005 C005 Ni01 125.0(6) . . ?
C006 C005 Ni01 70.41(3) . . ?
C006 C005 H005 123.7(5) . . ?
C00B C005 Ni01 70.76(3) . . ?
C00B C005 H005 125.7(5) . . ?
C00B C005 C006 110.63(5) . . ?
C005 C006 Ni01 68.90(3) . . ?
C008 C006 Ni01 70.05(3) . . ?
C008 C006 C005 106.22(5) . . ?
C00C C006 Ni01 126.83(4) . . ?
C00C C006 C005 120.94(5) . . ?
C00C C006 C008 132.82(5) . . ?
H007 C007 Ni01 125.2(5) . . ?
C008 C007 Ni01 70.91(3) . . ?
C008 C007 H007 124.4(5) . . ?
C00B C007 Ni01 70.63(3) . . ?
C00B C007 H007 125.0(5) . . ?
C00B C007 C008 110.67(5) . . ?
C006 C008 Ni01 69.06(3) . . ?
C007 C008 Ni01 68.71(3) . . ?
C007 C008 C006 106.50(5) . . ?
C00A C008 Ni01 132.46(4) . . ?
C00A C008 C006 134.35(5) . . ?
C00A C008 C007 118.68(5) . . ?
C00H C009 C00B 111.17(5) . . ?
C00J C009 C00B 110.32(5) . . ?
C00J C009 C00H 109.18(5) . . ?
C00K C009 C00B 108.24(5) . . ?
C00K C009 C00H 108.84(5) . . ?
C00K C009 C00J 109.06(5) . . ?
C00D C00A C008 115.72(5) . . ?
C00E C00A C008 107.63(5) . . ?
C00E C00A C00D 109.46(5) . . ?
C00F C00A C008 110.00(5) . . ?
C00F C00A C00D 106.28(5) . . ?
C00F C00A C00E 107.49(5) . . ?
C005 C00B Ni01 69.13(3) . . ?
C007 C00B Ni01 69.32(3) . . ?
C007 C00B C005 105.97(5) . . ?
C009 C00B Ni01 128.54(4) . . ?
C009 C00B C005 126.97(5) . . ?
C009 C00B C007 126.98(5) . . ?
C00G C00C C006 110.23(5) . . ?
C00I C00C C006 113.18(5) . . ?
C00I C00C C00G 110.70(5) . . ?
C00L C00C C006 110.02(5) . . ?
C00L C00C C00G 106.77(6) . . ?
C00L C00C C00I 105.65(5) . . ?
H00a C00D C00A 111.1(6) . . ?
H00b C00D C00A 113.3(5) . . ?
H00b C00D H00a 107.6(8) . . ?
H00c C00D C00A 108.9(6) . . ?
H00c C00D H00a 107.6(8) . . ?
H00c C00D H00b 108.1(8) . . ?
H00d C00E C00A 112.3(6) . . ?
H00e C00E C00A 111.2(6) . . ?
H00e C00E H00d 108.3(9) . . ?
H00f C00E C00A 110.7(6) . . ?
H00f C00E H00d 106.9(9) . . ?
H00f C00E H00e 107.2(8) . . ?
H00g C00F C00A 113.1(5) . . ?
H00h C00F C00A 111.9(6) . . ?
H00h C00F H00g 108.5(9) . . ?
H00i C00F C00A 109.7(6) . . ?
H00i C00F H00g 106.5(8) . . ?
H00i C00F H00h 106.7(9) . . ?
H00j C00G C00C 109.9(6) . . ?
H00k C00G C00C 113.0(6) . . ?
H00k C00G H00j 109.2(9) . . ?
H00l C00G C00C 110.3(6) . . ?
H00l C00G H00j 106.7(9) . . ?
H00l C00G H00k 107.6(9) . . ?
H00m C00H C009 110.4(6) . . ?
H00n C00H C009 111.8(6) . . ?
H00n C00H H00m 108.9(9) . . ?
H00o C00H C009 109.9(6) . . ?
H00o C00H H00m 108.1(9) . . ?
H00o C00H H00n 107.7(9) . . ?
H00p C00I C00C 114.0(6) . . ?
H00q C00I C00C 109.3(6) . . ?
H00q C00I H00p 108.1(10) . . ?
H00r C00I C00C 109.7(6) . . ?
H00r C00I H00p 108.3(10) . . ?
H00r C00I H00q 107.2(9) . . ?
H00s C00J C009 111.4(6) . . ?
H00t C00J C009 110.6(6) . . ?
H00t C00J H00s 108.9(9) . . ?
H00u C00J C009 110.4(6) . . ?
H00u C00J H00s 107.3(9) . . ?
H00u C00J H00t 108.1(9) . . ?
H00v C00K C009 110.9(6) . . ?
H00w C00K C009 110.9(6) . . ?
H00w C00K H00v 108.0(9) . . ?
H00x C00K C009 110.3(6) . . ?
H00x C00K H00v 108.4(8) . . ?
H00x C00K H00w 108.2(8) . . ?
H00y C00L C00C 111.9(6) . . ?
H C00L C00C 111.1(6) . . ?
H C00L H00y 110.3(9) . . ?
Ha C00L C00C 108.2(6) . . ?
Ha C00L H00y 106.6(9) . . ?
Ha C00L H 108.5(8) . . ?

