data_I
_audit_creation_date               2025-02-27
_audit_creation_method
;
Olex2 1.5
(compiled 2024.02.16 svn.r378c4104 for OlexSys, GUI svn.r6928)
;
_audit_contact_author_address      ?
_audit_contact_author_email        ?
_audit_contact_author_name         ''
_audit_contact_author_phone        ?
_publ_contact_author_id_orcid      ?
_publ_section_references
;
Bourhis, L.J., Dolomanov, O.V., Gildea, R.J., Howard, J.A.K., Puschmann, H.
 (2015). Acta Cryst. A71, 59-75.

Dolomanov, O.V., Bourhis, L.J., Gildea, R.J, Howard, J.A.K. & Puschmann, H.
 (2009), J. Appl. Cryst. 42, 339-341.
;
_chemical_name_common              urea
_chemical_name_systematic
;
 ?
;
_chemical_formula_moiety           '2(C0.5 H2 N O0.5)'
_chemical_formula_sum              'C H4 N2 O'
_chemical_formula_weight           60.056
_chemical_absolute_configuration   unk
loop_
  _atom_type_symbol
  _atom_type_scat_dispersion_real
  _atom_type_scat_dispersion_imag
  _atom_type_scat_Cromer_Mann_a1
  _atom_type_scat_Cromer_Mann_a2
  _atom_type_scat_Cromer_Mann_a3
  _atom_type_scat_Cromer_Mann_a4
  _atom_type_scat_Cromer_Mann_b1
  _atom_type_scat_Cromer_Mann_b2
  _atom_type_scat_Cromer_Mann_b3
  _atom_type_scat_Cromer_Mann_b4
  _atom_type_scat_Cromer_Mann_c
  _atom_type_scat_source
  _atom_type_scat_dispersion_source
 C 0.00080 0.00080 2.31000 1.02000 1.58860 0.86500 20.84390 10.20750 0.56870
 51.65120 0.21560 'International Tables Volume C Table 6.1.1.4 (pp. 500-502)'
 'Brennan, Cowan, Rev. Sci. Instrum., 1992, 63, 850'
 H 0.00000 0.00000 0.49300 0.32291 0.14019 0.04081 10.51090 26.12570 3.14236
 57.79970 0.00304 'International Tables Volume C Table 6.1.1.4 (pp. 500-502)'
 'Brennan, Cowan, Rev. Sci. Instrum., 1992, 63, 850'
 N 0.00380 0.00230 12.21260 3.13220 2.01250 1.16630 0.00570 9.89330 28.99750
 0.58260 -11.52900 'International Tables Volume C Table 6.1.1.4 (pp. 500-502)'
 'Brennan, Cowan, Rev. Sci. Instrum., 1992, 63, 850'
 O 0.00440 0.00300 3.04850 2.28680 1.54630 0.86700 13.27710 5.70110 0.32390
 32.90890 0.25080 'International Tables Volume C Table 6.1.1.4 (pp. 500-502)'
 'Brennan, Cowan, Rev. Sci. Instrum., 1992, 63, 850'

_space_group_crystal_system        'tetragonal'
_space_group_IT_number             113
_space_group_name_H-M_alt          'P -4 21 m'
_space_group_name_Hall             ' P -4 2ab'
loop_
  _space_group_symop_id
  _space_group_symop_operation_xyz
 1 x,y,z
 2 y,-x,-z
 3 -y,x,-z
 4 x+1/2,-y+1/2,-z
 5 -x+1/2,y+1/2,-z
 6 -x,-y,z
 7 -y+1/2,-x+1/2,z
 8 y+1/2,x+1/2,z

_symmetry_Int_Tables_number        113
_cell_length_a                     5.5780(6)
_cell_length_b                     5.5780(6)
_cell_length_c                     4.6860(7)
_cell_angle_alpha                  90
_cell_angle_beta                   90
_cell_angle_gamma                  90
_cell_volume                       145.80(3)
_cell_formula_units_Z              2
_cell_measurement_reflns_used      17
_cell_measurement_temperature      123(2)
_exptl_absorpt_coefficient_mu      0.118
_exptl_absorpt_correction_type     none
_exptl_crystal_colour              colourless
_exptl_crystal_colour_primary      colourless
_exptl_crystal_density_diffrn      1.368
_exptl_crystal_density_method      'not measured'
_exptl_crystal_description         block
_exptl_crystal_F_000               64.026
_exptl_crystal_size_max            0.23
_exptl_crystal_size_mid            0.13
_exptl_crystal_size_min            0.09
_exptl_special_details
;
 ?
;
_diffrn_reflns_av_R_equivalents    0.0000
_diffrn_reflns_av_unetI/netI       0.0153
_diffrn_reflns_Laue_measured_fraction_full  1.0000
_diffrn_reflns_Laue_measured_fraction_max  0.9817
_diffrn_reflns_limit_h_max         15
_diffrn_reflns_limit_h_min         -15
_diffrn_reflns_limit_k_max         0
_diffrn_reflns_limit_k_min         -15
_diffrn_reflns_limit_l_max         0
_diffrn_reflns_limit_l_min         -13
_diffrn_reflns_number              1045
_diffrn_reflns_point_group_measured_fraction_full  1.0000
_diffrn_reflns_point_group_measured_fraction_max  0.9817
_diffrn_reflns_theta_full          25.2417
_diffrn_reflns_theta_max           86.97
_diffrn_reflns_theta_min           4.35
_diffrn_ambient_temperature        123(2)
_diffrn_measured_fraction_theta_full  1.0000
_diffrn_measured_fraction_theta_max  0.9817
_diffrn_measurement_device_type
;
KM6-CH six-circle \k diffractometer operated as standard four-circle
\k diffractometer with detector circle in the vertical plane to profit
from the linear polarization of the synchrotron beam.
;
_diffrn_measurement_method         \w-scan
_diffrn_radiation_type             'Mo K\a'
_diffrn_radiation_wavelength       0.71073
_reflns_Friedel_coverage           0.0
_reflns_limit_h_max                15
_reflns_limit_h_min                0
_reflns_limit_k_max                10
_reflns_limit_k_min                0
_reflns_limit_l_max                13
_reflns_limit_l_min                0
_reflns_number_gt                  803
_reflns_number_total               1022
_reflns_threshold_expression       I>=2u(I)
_computing_cell_refinement         'KM6-CH software'
_computing_data_collection         'KM6-CH software'
_computing_data_reduction          XD_RED
_computing_molecular_graphics      'Olex2 1.5 (Dolomanov et al., 2009)'
_computing_publication_material    'Olex2 1.5 (Dolomanov et al., 2009)'
_computing_structure_refinement    'olex2.refine 1.5 (Bourhis et al., 2015)'
_refine_diff_density_max           0.4345
_refine_diff_density_min           -0.2388
_refine_diff_density_rms           0.0587
_refine_ls_d_res_high              0.3559
_refine_ls_d_res_low               4.6860
_refine_ls_goodness_of_fit_ref     0.8410
_refine_ls_hydrogen_treatment      refall
_refine_ls_matrix_type             full
_refine_ls_number_constraints      0
_refine_ls_number_parameters       13
_refine_ls_number_reflns           1022
_refine_ls_number_restraints       0
_refine_ls_R_factor_all            0.0362
_refine_ls_R_factor_gt             0.0261
_refine_ls_restrained_S_all        0.8410
_refine_ls_shift/su_max            -0.0002
_refine_ls_shift/su_mean           0.0000
_refine_ls_structure_factor_coef   Fsqd
_refine_ls_weighting_details      
 'w=1/[\s^2^(Fo^2^)+(0.0392P)^2^+0.0048P] where P=(Fo^2^+2Fc^2^)/3'
_refine_ls_weighting_scheme        calc
_refine_ls_wR_factor_gt            0.0685
_refine_ls_wR_factor_ref           0.0686
_olex2_refinement_description
;
1. Others
 Fixed U13: C(0) O(0)
 Fixed U23: C(0) O(0)
 Fixed X: C(0) O(0)
 Fixed Y: C(0.5) O(0.5)
;
loop_
  _atom_site_label
  _atom_site_type_symbol
  _atom_site_fract_x
  _atom_site_fract_y
  _atom_site_fract_z
  _atom_site_U_iso_or_equiv
  _atom_site_adp_type
  _atom_site_occupancy
  _atom_site_site_symmetry_order
  _atom_site_refinement_flags_posn
  _atom_site_refinement_flags_adp
  _atom_site_refinement_flags_occupancy
 O O 0.000000 0.500000 0.596340 0.015270 Uani 1.000000 4 S T P
 N N 0.14485(4) 0.64485(4) 0.17845(6) 0.02265(7) Uani 1.000000 2 S T P
 Ha H 0.1376(15) 0.6376(15) -0.019(3) 0.034(3) Uiso 1.000000 2 S T P
 Hb H 0.2432(14) 0.7432(14) 0.276(2) 0.030(3) Uiso 1.000000 2 S T P
 C C 0.000000 0.500000 0.328210 0.012377 Uani 1.000000 4 S T P

loop_
  _atom_site_aniso_label
  _atom_site_aniso_U_11
  _atom_site_aniso_U_22
  _atom_site_aniso_U_33
  _atom_site_aniso_U_12
  _atom_site_aniso_U_13
  _atom_site_aniso_U_23
 O 0.019580 0.019580 0.006650 0.001640 -0.000000 0.000000
 N 0.02922(10) 0.02922(10) 0.00950(6) -0.01547(12) 0.00008(5) 0.00008(5)
 C 0.015190 0.015190 0.006750 -0.000350 -0.000000 0.000000

loop_
  _geom_bond_atom_site_label_1
  _geom_bond_atom_site_label_2
  _geom_bond_distance
  _geom_bond_site_symmetry_2
  _geom_bond_publ_flag
 O C 1.2565 . ?
 N C 1.3410(3) . ?
 N Ha 0.925(14) . ?
 N Hb 0.900(11) . ?
 N C 1.3410(3) 6_565 ?

loop_
  _geom_angle_atom_site_label_1
  _geom_angle_atom_site_label_2
  _geom_angle_atom_site_label_3
  _geom_angle
  _geom_angle_site_symmetry_1
  _geom_angle_site_symmetry_3
  _geom_angle_publ_flag
 Hb N Ha 124.0(10) . . ?
 C N Ha 118.0(7) 6_565 . ?
 C N Hb 118.0(6) 6_565 . ?
 N C O 121.558(13) . . ?
 N C O 121.558(13) 6_565 . ?
 N C N 116.88(3) 6_565 . ?

loop_
  _geom_hbond_atom_site_label_D
  _geom_hbond_atom_site_label_H
  _geom_hbond_atom_site_label_A
  _geom_hbond_distance_DH
  _geom_hbond_distance_HA
  _geom_hbond_distance_DA
  _geom_hbond_angle_DHA
  _geom_hbond_site_symmetry_A
 N Ha O 0.925(14) 2.106(13) 2.9574(5) 152.5(11) 1_554
 N Hb O 0.900(11) 2.113(11) 2.9938(4) 166.0(9) 2_566

loop_
  _diffrn_refln_index_h
  _diffrn_refln_index_k
  _diffrn_refln_index_l
  _diffrn_refln_intensity_net
  _diffrn_refln_intensity_u
 0 -2 -6 14.56 0.23
 -1 -1 -6 29.44 0.33
 0 -1 -6 5.29 0.28
 0 0 -6 156.54 1.86
 -4 0 -5 25.82 0.36
 -3 0 -5 3.66 0.17
 -2 0 -5 5.59 0.26
 -1 0 -5 189.09 0.97
 0 0 -5 486.21 3.6
 4 -1 -5 15.03 0.28
 3 -1 -5 16.59 0.28
 2 -1 -5 134.68 0.72
 1 -1 -5 168.5 1.11
 -4 -2 -5 52.61 0.32
 -3 -2 -5 75.67 0.53
 -2 -2 -5 96.97 0.83
 3 -3 -5 132.61 0.84
 -2 -5 -4 75.16 0.55
 -1 -5 -4 153.34 0.9
 0 -5 -4 178.18 1.13
 4 -4 -4 86.18 0.62
 3 -4 -4 3.06 0.16
 2 -4 -4 164.55 0.88
 1 -4 -4 426.26 1.75
 0 -4 -4 58.69 0.47
 -3 -3 -4 156.47 1.16
 -2 -3 -4 135.42 0.67
 -1 -3 -4 143.86 0.67
 0 -3 -4 1039.92 3.75
 2 -2 -4 430.71 2.11
 1 -2 -4 449.35 1.43
 0 -2 -4 199.6 0.84
 -1 -1 -4 430.84 1.82
 0 -1 -4 21.99 0.28
 0 0 -4 295.58 1.78
 -6 0 -3 2.3 0.13
 -5 0 -3 84.49 0.57
 -4 0 -3 712.6 2.52
 -3 0 -3 115.15 0.54
 -2 0 -3 492.13 1.31
 -1 0 -3 869.3 1.88
 0 0 -3 135.06 0.8
 6 -1 -3 104.35 0.67
 5 -1 -3 101.39 0.57
 4 -1 -3 130.06 0.59
 3 -1 -3 655.96 1.75
 2 -1 -3 680.24 1.54
 1 -1 -3 114.99 0.55
 -6 -2 -3 61.52 0.4
 -5 -2 -3 211.73 1.02
 -4 -2 -3 41.9 0.33
 -3 -2 -3 254.14 0.87
 -2 -2 -3 272.9 1.14
 5 -3 -3 33.52 0.34
 4 -3 -3 166.6 0.79
 3 -3 -3 5.08 0.3
 -5 -4 -3 56.91 0.33
 -4 -4 -3 1.59 0.15
 -1 -7 -2 14.33 0.2
 0 -7 -2 50.95 0.36
 3 -6 -2 9.1 0.25
 2 -6 -2 28.22 0.32
 1 -6 -2 46.62 0.38
 0 -6 -2 25.4 0.34
 -5 -5 -2 49.59 0.44
 -4 -5 -2 6.89 0.25
 -3 -5 -2 22.34 0.29
 -2 -5 -2 73.54 0.44
 -1 -5 -2 81.91 0.45
 0 -5 -2 0.89 0.16
 4 -4 -2 39.73 0.48
 3 -4 -2 185.71 0.76
 2 -4 -2 53.91 0.33
 1 -4 -2 27.24 0.26
 0 -4 -2 76.14 0.42
 -3 -3 -2 78.84 0.55
 -2 -3 -2 109.09 0.42
 -1 -3 -2 147.46 0.46
 0 -3 -2 176.71 0.57
 2 -2 -2 542.88 1.57
 1 -2 -2 299.59 0.71
 0 -2 -2 82.27 0.33
 -1 -1 -2 524.41 1.18
 0 -1 -2 1517.92 2.7
 -7 0 -1 84.53 0.67
 -6 0 -1 44.33 0.41
 -5 0 -1 1.04 0.11
 -4 0 -1 967.16 2.37
 -3 0 -1 925.59 1.73
 -2 0 -1 1958.98 2.6
 -1 0 -1 1485.44 1.77
 0 0 -1 133.08 0.49
 7 -1 -1 31.61 0.35
 6 -1 -1 56.37 0.4
 5 -1 -1 300.73 1.03
 4 -1 -1 115.54 0.43
 3 -1 -1 1410.5 2.25
 2 -1 -1 491.23 0.75
 1 -1 -1 2808.61 5.07
 -7 -2 -1 0.14 1.69
 -6 -2 -1 136.45 0.75
 -5 -2 -1 71.42 0.42
 -4 -2 -1 254.83 0.78
 -3 -2 -1 50.86 0.32
 -2 -2 -1 1980.19 3.9
 6 -3 -1 8.78 0.25
 5 -3 -1 117.53 0.61
 4 -3 -1 204.13 0.75
 3 -3 -1 80.53 0.52
 -6 -4 -1 133.64 0.61
 -5 -4 -1 4.74 0.21
 -4 -4 -1 47.16 0.5
 5 -5 -1 155.05 1.36
 -2 -7 0 2.74 0.09
 -1 -7 0 312.05 1.77
 4 -6 0 24.49 0.33
 3 -6 0 0.43 2.26
 2 -6 0 232.6 1.07
 1 -6 0 52.77 0.44
 0 -6 0 609.97 4.08
 -5 -5 0 67.05 0.73
 -4 -5 0 28.63 0.32
 -3 -5 0 428.02 1.61
 -2 -5 0 212.44 0.82
 -1 -5 0 419.03 1.48
 4 -4 0 822.67 3.85
 3 -4 0 32.34 0.28
 2 -4 0 925.41 2.17
 1 -4 0 70.73 0.38
 0 -4 0 54.64 0.57
 -3 -3 0 2174.94 6.1
 -2 -3 0 172.47 0.48
 -1 -3 0 288.54 0.68
 2 -2 0 2253.08 4.13
 1 -2 0 2248.26 2.8
 0 -2 0 1545.05 2.97
 -2 -11 -5 3.7 0.15
 -1 -11 -5 0.24 2.79
 0 -11 -5 0.18 3.29
 5 -10 -5 3.61 0.17
 4 -10 -5 3.97 0.18
 3 -10 -5 7.69 0.32
 -6 -9 -5 4.49 0.2
 -5 -9 -5 6.42 0.29
 7 -8 -5 6.45 0.28
 10 -2 -5 0.57 0.16
 -11 0 -4 15.33 0.41
 11 -1 -4 3.72 0.14
 -11 -2 -4 4.13 0.22
 -11 -3 -4 5.34 0.28
 -11 -4 -4 2.71 0.13
 10 -5 -4 3.76 0.16
 -10 -6 -4 2.3 0.13
 -9 -6 -4 4.95 0.22
 9 -7 -4 2.93 0.14
 -8 -8 -4 3.45 0.22
 2 -12 -3 1.69 0.13
 1 -12 -3 2.79 0.13
 0 -12 -3 3.36 0.17
 -5 -11 -3 5.16 0.24
 -4 -11 -3 3.18 0.14
 -3 -11 -3 0.9 0.16
 7 -10 -3 3.15 0.15
 6 -10 -3 8.52 0.32
 -8 -9 -3 3.81 0.2
 -7 -9 -3 9.85 0.33
 8 -8 -3 9.47 0.47
 -12 0 -2 0.04 2.14
 12 -1 -2 0.45 2.81
 -12 -2 -2 1.22 0.2
 12 -3 -2 0.3 1.97
 -11 -4 -2 0.41 1.63
 11 -5 -2 0.75 2.82
 -10 -6 -2 0.28 2.02
 10 -7 -2 3.21 0.15
 -9 -8 -2 3.98 0.17
 4 -12 -1 2.85 0.15
 3 -12 -1 0.89 0.14
 2 -12 -1 3.54 0.15
 1 -12 -1 0.8 0.16
 0 -12 -1 3.68 0.22
 -6 -11 -1 0.85 0.14
 -5 -11 -1 5.13 0.21
 7 -10 -1 1.26 0.17
 -8 -9 -1 1.66 0.13
 -12 0 0 9.86 0.37
 12 -1 0 0.54 2.86
 -12 -2 0 11.62 0.34
 12 -3 0 0.34 2.81
 -12 -4 0 4.63 0.16
 11 -5 0 6.23 0.28
 -11 -6 0 2.52 0.14
 10 -7 0 3.62 0.18
 -9 -8 0 5.71 0.24
 9 -9 0 1.11 0.18
 1 -3 -11 53.74 0.67
 0 -3 -11 4.06 0.21
 -2 -2 -11 27.57 0.63
 -1 -2 -11 18.92 0.39
 0 -2 -11 43.05 0.67
 1 -1 -11 16.35 0.51
 0 -1 -11 14.21 0.4
 0 0 -11 0.72 2.56
 6 0 -10 7.32 0.35
 5 0 -10 5.26 0.3
 -6 -1 -10 -0.08 2.79
 -5 -1 -10 15.52 0.36
 6 -2 -10 8.32 0.32
 5 -2 -10 1.18 0.14
 -5 -3 -10 8.52 0.32
 -4 -3 -10 2.51 0.14
 5 -4 -10 2.5 0.14
 4 -4 -10 7.32 0.45
 -2 -8 -9 1.91 0.13
 -1 -8 -9 2.15 0.13
 0 -8 -9 0.08 3.27
 4 -7 -9 5.42 0.25
 3 -7 -9 5.72 0.26
 2 -7 -9 2.77 0.15
 1 -7 -9 1.01 0.13
 0 -7 -9 0.52 3.19
 -5 -6 -9 7.53 0.3
 -4 -6 -9 6.19 0.28
 5 -5 -9 5.02 0.32
 9 0 -8 13.24 0.4
 -9 -1 -8 0.33 2.9
 9 -2 -8 12.37 0.35
 -9 -3 -8 1.25 0.14
 -8 -3 -8 20.7 0.4
 8 -4 -8 0.5 0.16
 -8 -5 -8 8.77 0.32
 -7 -5 -8 0.87 0.16
 7 -6 -8 7.04 0.31
 6 -6 -8 2.28 0.19
 -3 -10 -7 15.35 0.37
 -2 -10 -7 0.18 2.8
 -1 -10 -7 4.99 0.22
 0 -10 -7 0 3.26
 5 -9 -7 2.75 0.14
 4 -9 -7 20.17 0.4
 -7 -8 -7 12.52 0.35
 -6 -8 -7 3.12 0.16
 7 -7 -7 2.83 0.2
 11 0 -6 1.35 0.17
 -11 -1 -6 0.27 2.77
 11 -2 -6 1.01 0.16
 -11 -3 -6 1.52 0.13
 10 -4 -6 3.07 0.15
 -10 -5 -6 0.88 0.2
 9 -6 -6 1.6 0.13
 -9 -7 -6 0.38 2.78
 -8 -7 -6 1.45 0.17
 8 -8 -6 0 4.01
 -2 -12 -5 0.1 2.87
 -1 -12 -5 1.6 0.14
 0 -12 -5 0.14 3.23
 5 -11 -5 -0.14 2.83
 4 -11 -5 2.54 0.14
 3 -11 -5 1.8 0.13
 -6 -10 -5 -0.07 2.83
 8 -9 -5 1.97 0.13
 7 -9 -5 -0.41 2.89
 -8 -8 -5 0.06 4.06
 12 0 -4 1.97 0.15
 -12 -1 -4 3.7 0.16
 12 -2 -4 2.88 0.14
 -12 -3 -4 2.71 0.14
 12 -4 -4 1.42 0.13
 -11 -5 -4 2.23 0.13
 11 -6 -4 8.69 0.33
 -10 -7 -4 12.72 0.35
 9 -8 -4 14.12 0.37
 1 -13 -3 0.96 0.14
 0 -13 -3 1.18 0.17
 -5 -12 -3 1.31 0.14
 -4 -12 -3 3.17 0.15
 -3 -12 -3 1.76 0.13
 7 -11 -3 5.11 0.25
 6 -11 -3 2.34 0.13
 -8 -10 -3 7.31 0.3
 9 -9 -3 7.81 0.44
 13 0 -2 0.29 2.11
 -13 -1 -2 0.02 2.85
 13 -2 -2 0.03 2.78
 12 -4 -2 0.13 2.84
 -12 -5 -2 0.95 0.16
 11 -6 -2 2.04 0.13
 -11 -7 -2 0.9 0.14
 10 -8 -2 1.62 0.13
 -9 -9 -2 1.59 0.19
 -3 -13 -2 -0.05 2.84
 3 -13 -1 1.89 0.13
 2 -13 -1 0.22 2.82
 1 -13 -1 1.52 0.13
 0 -13 -1 0.81 0.22
 -6 -12 -1 2.7 0.13
 -5 -12 -1 0.16 2.86
 7 -11 -1 4.05 0.19
 -9 -10 -1 0.37 2.79
 -8 -10 -1 5.06 0.24
 9 -9 -1 6.52 0.37
 -13 -1 0 6.66 0.29
 13 -2 0 0.07 2.82
 -13 -3 0 2.35 0.14
 -12 -5 0 1.19 0.17
 12 -6 0 1.46 0.13
 -11 -7 0 1.23 0.16
 10 -8 0 1 0.17
 -10 -9 0 0.11 1.99
 5 0 -11 4.46 0.22
 4 0 -11 59.56 0.84
 -5 -1 -11 17.5 0.37
 -4 -1 -11 5.65 0.24
 5 -2 -11 12.44 0.33
 4 -2 -11 11.89 0.34
 3 -2 -11 9.44 0.32
 -4 -3 -11 10.44 0.32
 -3 -3 -11 3.1 0.23
 4 -4 -11 3.51 0.24
 3 -7 -10 2.65 0.13
 2 -7 -10 3.84 0.15
 1 -7 -10 4.07 0.21
 0 -7 -10 0.94 0.21
 -5 -6 -10 4.86 0.23
 -4 -6 -10 3.92 0.18
 -3 -6 -10 7.75 0.32
 5 -5 -10 8.09 0.45
 9 0 -9 1.17 0.17
 -9 -1 -9 0.7 0.14
 9 -2 -9 2.23 0.13
 -8 -3 -9 3.68 0.16
 8 -4 -9 0.5 1.98
 -7 -5 -9 0.36 2.74
 7 -6 -9 -0.13 2.84
 6 -6 -9 0.5 3.9
 -5 -8 -9 0.84 0.16
 -3 -10 -8 2.89 0.14
 -2 -10 -8 0.84 0.14
 -1 -10 -8 8.86 0.32
 0 -10 -8 0.41 3.14
 5 -9 -8 3.73 0.18
 4 -9 -8 6.16 0.26
 -7 -8 -8 3.57 0.15
 -6 -8 -8 5.52 0.24
 7 -7 -8 6.95 0.39
 11 0 -7 2.68 0.15
 -11 -1 -7 0.4 2.76
 11 -2 -7 7.33 0.31
 -11 -3 -7 0.34 2.81
 10 -4 -7 0.77 0.16
 -10 -5 -7 7.76 0.31
 9 -6 -7 9.35 0.33
 -9 -7 -7 0.34 2.8
 8 -8 -7 0.28 4.02
 -2 -12 -6 -0.04 2.82
 -1 -12 -6 0.09 2.89
 0 -12 -6 0.37 3.17
 5 -11 -6 0.36 2.77
 4 -11 -6 0.54 2
 -7 -10 -6 1.86 0.14
 -6 -10 -6 -0.02 2.83
 8 -9 -6 2.84 0.14
 -12 -3 -5 1.42 0.16
 12 -4 -5 0 2.78
 11 -6 -5 0.95 0.16
 -10 -7 -5 1.34 0.14
 10 -8 -5 0.33 2
 -9 -9 -5 0.58 4
 3 -13 -4 0.52 2.86
 2 -13 -4 1.59 0.15
 1 -13 -4 1.27 0.13
 0 -13 -4 1.08 0.15
 -6 -12 -4 0.75 0.16
 -5 -12 -4 5.46 0.22
 7 -11 -4 1.24 0.13
 -9 -10 -4 1.76 0.14
 -8 -10 -4 1.66 0.13
 9 -9 -4 2.19 0.18
 13 -2 -3 0.91 0.16
 -13 -3 -3 2.16 0.13
 13 -4 -3 0.66 0.16
 12 -6 -3 3.72 0.16
 11 -8 -3 0.66 0.2
 -10 -9 -3 0.71 0.16
 -1 -14 -2 -0.47 2.85
 0 -14 -2 0.08 2.09
 5 -13 -2 -0.15 2.82
 4 -13 -2 0.41 2.8
 -7 -12 -2 -0.01 2.8
 -6 -12 -2 0.48 2.04
 8 -11 -2 -0.23 2.83
 -9 -10 -2 0.03 2.78
 14 0 -1 0.13 3.31
 -14 -1 -1 0.27 2.77
 14 -2 -1 0.97 0.16
 13 -4 -1 0.29 2.79
 -13 -5 -1 1.64 0.13
 -12 -7 -1 0.09 1.99
 11 -8 -1 -0.06 2.87
 -11 -9 -1 0.97 0.14
 10 -10 -1 1.23 0.23
 -2 -14 0 1.73 0.13
 -1 -14 0 0.08 2.77
 0 -14 0 3.31 0.16
 5 -13 0 1.24 0.14
 4 -13 0 0.17 2.01
 -7 -12 0 -0.06 2.8
 9 -11 0 5.28 0.24
 8 -11 0 0.02 2.79
 -10 -10 0 5.87 0.36
 -1 -4 -12 0.28 2.72
 0 -4 -12 2.28 0.15
 3 -3 -12 19.61 0.52
 2 -3 -12 4.07 0.18
 1 -3 -12 5.85 0.25
 0 -3 -12 0.43 1.65
 -2 -2 -12 17.36 0.5
 -1 -2 -12 4.16 0.2
 0 -2 -12 10.57 0.36
 1 -1 -12 24.5 0.59
 0 -1 -12 12.49 0.38
 0 0 -12 37.75 1.05
 7 0 -11 4.76 0.25
 6 0 -11 4.38 0.2
 -7 -1 -11 3.55 0.14
 -6 -1 -11 7.18 0.3
 6 -2 -11 11.66 0.33
 -6 -3 -11 2.24 0.13
 -5 -3 -11 8.11 0.32
 5 -4 -11 4.76 0.21
 -5 -5 -11 14.01 0.48
 0 -9 -10 1.92 0.14
 -4 -8 -10 1.67 0.12
 -3 -8 -10 3.99 0.18
 -2 -8 -10 3.84 0.16
 -1 -8 -10 0.19 2.81
 0 -8 -10 2.48 0.15
 5 -7 -10 1.55 0.13
 4 -7 -10 7.7 0.3
 -6 -6 -10 1.99 0.18
 10 0 -9 1 0.21
 -10 -1 -9 0.71 0.16
 10 -2 -9 -0.2 2.74
 -9 -3 -9 0.19 2.73
 9 -4 -9 0.5 2.73
 -9 -5 -9 0.48 1.95
 8 -6 -9 1.28 0.14
 -7 -7 -9 1.65 0.18
 3 -11 -8 1.14 0.14
 2 -11 -8 2.81 0.14
 1 -11 -8 0.35 2.73
 0 -11 -8 4.96 0.25
 -5 -10 -8 2.65 0.14
 -4 -10 -8 2.6 0.13
 7 -9 -8 0.11 2.71
 6 -9 -8 3.92 0.15
 -8 -8 -8 0.09 3.82
 12 0 -7 0.28 3.12
 -12 -1 -7 3.61 0.16
 12 -2 -7 0.46 2.73
 -12 -3 -7 2.85 0.15
 11 -4 -7 5.34 0.26
 -11 -5 -7 0.46 2.7
 10 -6 -7 0.27 1.95
 -10 -7 -7 0.23 1.95
 9 -8 -7 0.33 1.94
 1 -13 -6 0.07 1.92
 0 -13 -6 0.04 3.15
 -5 -12 -6 0.81 2.72
 -4 -12 -6 -0.09 2.74
 -3 -12 -6 0.7 0.19
 7 -11 -6 0.58 2.65
 6 -11 -6 1.6 0.13
 -8 -10 -6 0.54 1.93
 9 -9 -6 0.63 2.23
 13 0 -5 0.94 0.17
 -13 -1 -5 0.11 1.95
 13 -2 -5 0.23 2.83
 -13 -3 -5 0.1 2.73
 -13 -4 -5 -0.25 3.22
 -12 -5 -5 0.63 2.77
 12 -6 -5 0.29 1.95
 -11 -7 -5 0.82 0.19
 11 -8 -5 0.56 1.9
 -10 -9 -5 0.21 2.76
 -2 -14 -4 0.43 2.7
 -1 -14 -4 0.57 2.78
 0 -14 -4 0.77 0.21
 5 -13 -4 0.01 2.81
 4 -13 -4 3 0.15
 -7 -12 -4 1.28 0.12
 8 -11 -4 1.6 0.14
 -10 -10 -4 1.33 0.18
 14 0 -3 -0.07 3.28
 -14 -1 -3 0.22 2.76
 14 -2 -3 0.89 0.16
 -14 -3 -3 0.36 2.73
 -13 -5 -3 1.82 0.13
 13 -6 -3 0.57 2.71
 -12 -7 -3 0.6 0.14
 12 -8 -3 0.04 2.71
 -11 -9 -3 -0.24 2.74
 10 -10 -3 -0.18 3.94
 -4 -14 -2 -0.11 2.73
 -3 -14 -2 0.24 2.74
 -2 -14 -2 -0.12 2.79
 6 -13 -2 -0.01 2.74
 -8 -12 -2 0.86 0.19
 9 -11 -2 0.61 0.2
 -10 -10 -2 0.71 3.98
 -14 -3 -1 0.03 2.75
 14 -4 -1 0.72 0.2
 -14 -5 -1 -0.22 1.96
 13 -6 -1 0.13 2.75
 -13 -7 -1 0.49 0.16
 12 -8 -1 0.59 0.16
 11 -10 -1 1.09 0.14
 -5 -14 0 -0.3 2.76
 -4 -14 0 0.72 0.14
 -3 -14 0 0.13 2.78
 7 -13 0 2.6 0.14
 6 -13 0 0.08 2.78
 -8 -12 0 4.28 0.18
 10 -11 0 0.49 2.77
 1 -6 -12 3.15 0.13
 0 -6 -12 10.11 0.3
 -3 -5 -12 7.05 0.26
 -2 -5 -12 4.06 0.15
 -1 -5 -12 8.08 0.27
 0 -5 -12 0.84 0.16
 0 -1 -13 0.05 3.07
 0 0 -13 1.78 0.24
 4 -2 -12 12.19 0.32
 -4 -3 -12 7.28 0.3
 4 -4 -12 11.68 0.45
 -2 -8 -11 7.79 0.29
 -1 -8 -11 2.76 0.13
 0 -8 -11 2.89 0.15
 4 -7 -11 1.41 0.12
 3 -7 -11 16.17 0.34
 2 -7 -11 2.2 0.12
 -5 -6 -11 2.76 0.13
 -4 -6 -11 17.01 0.36
 -9 -1 -10 1.98 0.13
 9 -2 -10 1.09 0.14
 -9 -3 -10 0.87 0.16
 9 -4 -10 -0.26 2.65
 -8 -5 -10 0.21 2.61
 7 -6 -10 -0.33 2.71
 -7 -7 -10 2.07 0.17
 2 -11 -9 0.35 2.58
 1 -11 -9 0.51 2.61
 0 -11 -9 -0.15 3.1
 -5 -10 -9 0.05 2.57
 -4 -10 -9 -0.18 1.93
 -3 -10 -9 0.51 2.65
 6 -9 -9 0.27 2.64
 -7 -8 -9 -0.01 2.65
 12 0 -8 0.52 3.04
 -12 -1 -8 1.85 0.12
 12 -2 -8 0.63 0.15
 11 -4 -8 1.5 0.14
 -11 -5 -8 -0.24 2.63
 10 -6 -8 -0.03 2.66
 -10 -7 -8 3.33 0.14
 9 -8 -8 3.7 0.17
 1 -13 -7 0.28 2.57
 0 -13 -7 2 0.15
 -5 -12 -7 0.33 2.61
 -4 -12 -7 0.33 2.65
 7 -11 -7 0.61 2.59
 6 -11 -7 0.42 1.9
 -8 -10 -7 0.52 0.13
 9 -9 -7 0.7 3.77
 13 -2 -6 0.54 2.65
 -13 -3 -6 0.08 2.65
 13 -4 -6 0.48 1.85
 12 -6 -6 0.1 2.67
 11 -8 -6 0.31 2.59
 -10 -9 -6 0.33 1.86
 -3 -14 -5 -0.18 2.58
 -2 -14 -5 -0.17 2.64
 -1 -14 -5 0.22 2.69
 0 -14 -5 0 3.08
 6 -13 -5 -0.1 2.64
 5 -13 -5 0.44 2.61
 -7 -12 -5 0.04 1.93
 9 -11 -5 0.49 1.86
 -10 -10 -5 0.55 3.75
 -14 -3 -4 1.08 0.19
 14 -4 -4 -0.06 1.87
 13 -6 -4 0.83 0.16
 -13 -7 -4 0.41 2.64
 12 -8 -4 0.95 0.16
 -11 -9 -4 1.31 0.16
 1 -15 -3 0.3 1.86
 0 -15 -3 0.43 3
 -5 -14 -3 0.39 2.64
 -4 -14 -3 1.09 0.16
 7 -13 -3 -0.01 1.88
 -9 -12 -3 0.68 0.19
 10 -11 -3 0.79 0.19
 15 0 -2 -0.44 3.13
 -15 -1 -2 0.26 2.63
 15 -2 -2 -0.09 2.69
 -15 -3 -2 0.14 2.55
 -14 -5 -2 -0.04 2.7
 14 -6 -2 -0.04 2.64
 -13 -7 -2 0.23 1.58
 13 -8 -2 0.52 2.58
 -12 -9 -2 -0.05 2.74
 11 -10 -2 0.56 0.16
 3 -15 -1 -0.21 2.7
 2 -15 -1 -0.01 2.68
 1 -15 -1 0.33 1.9
 0 -15 -1 -0.1 3.16
 -6 -14 -1 -0.07 1.91
 8 -13 -1 0.57 0.16
 -9 -12 -1 0.62 0.2
 -15 -1 0 0.75 2.75
 15 -2 0 0.21 2.7
 -15 -3 0 0.6 2.64
 15 -4 0 0.07 1.84
 14 -6 0 1.66 0.12
 13 -8 0 0.14 2.69
 -12 -9 0 0.52 2.74
 4 0 -13 0.05 2.88
 3 0 -13 6.49 0.32
 2 0 -13 -0.27 2.99
 -4 -1 -13 2.35 0.12
 -3 -1 -13 0.46 1.81
 -2 -1 -13 2.1 0.12
 -1 -1 -13 2.29 0.18
 3 -2 -13 0.57 2.45
 2 -2 -13 3.82 0.25
 -3 -3 -13 0.72 3.45
 2 -7 -12 0.26 2.46
 1 -7 -12 6.53 0.26
 0 -7 -12 3.05 0.21
 -4 -6 -12 1.79 0.11
 -3 -6 -12 -0.46 2.57
 -2 -6 -12 5.46 0.26
 5 -5 -12 3.77 0.27
 4 -5 -12 1.13 0.11
 9 0 -11 0.95 0.13
 -9 -1 -11 4.57 0.2
 9 -2 -11 1.35 0.11
 -8 -3 -11 1.43 0.12
 8 -4 -11 4.82 0.21
 -7 -5 -11 4.75 0.22
 7 -6 -11 1.93 0.11
 6 -6 -11 3.71 0.28
 -4 -10 -10 0.99 0.16
 -3 -10 -10 -0.06 3.56
 -2 -10 -10 0.44 3.7
 -1 -10 -10 1.76 0.17
 0 -10 -10 0.93 5.1
 6 -9 -10 0.23 1.96
 5 -9 -10 1.89 0.16
 -7 -8 -10 -0.49 4.99
 -6 -8 -10 2.42 0.18
 -4 0 -7 1.57 0.13
 -3 0 -7 4.96 0.23
 -2 0 -7 2.68 0.13
 -1 0 -7 428.85 3.37
 0 0 -7 2.64 0.26
 3 -1 -7 15.23 0.31
 2 -1 -7 107.02 0.86
 1 -1 -7 56.5 0.74
 -3 -2 -7 159.96 1.29
 -2 -2 -7 100.04 1.17
 -1 -4 -7 33.74 0.35
 -3 -5 -6 5.66 0.23
 -2 -5 -6 61.33 0.59
 -1 -5 -6 7.59 0.28
 0 -5 -6 19.7 0.39
 4 -4 -6 25.58 0.54
 3 -4 -6 11.39 0.29
 2 -4 -6 11.23 0.29
 1 -4 -6 56.99 0.52
 0 -4 -6 77.23 0.73
 -3 -3 -6 55.34 0.72
 -2 -3 -6 30.17 0.36
 -1 -3 -6 51.87 0.46
 0 -3 -6 107.88 0.88
 2 -2 -6 27.38 0.48
 1 -2 -6 138.03 0.89
 -7 0 -5 62.33 0.71
 -6 0 -5 43.5 0.53
 -5 0 -5 18.69 0.35
 7 -1 -5 20.45 0.34
 6 -1 -5 63.96 0.58
 5 -1 -5 33.67 0.37
 -6 -2 -5 15.38 0.31
 -5 -2 -5 90.91 0.7
 6 -3 -5 3.24 0.14
 5 -3 -5 24.01 0.34
 4 -3 -5 131.49 0.91
 -5 -4 -5 25.76 0.37
 -4 -4 -5 55.31 0.72
 5 -5 -5 16.56 0.47
 -3 -7 -4 18.22 0.34
 -2 -7 -4 82.6 0.71
 -1 -7 -4 45.64 0.47
 0 -7 -4 1.79 0.13
 5 -6 -4 92.46 0.83
 4 -6 -4 34.14 0.42
 3 -6 -4 150.74 1.1
 2 -6 -4 75.1 0.61
 1 -6 -4 28.93 0.35
 0 -6 -4 77.02 0.68
 -5 -5 -4 69.01 0.87
 -4 -5 -4 83.81 0.67
 -3 -5 -4 84.4 0.62
 -8 0 -3 7.89 0.32
 -7 0 -3 52.18 0.54
 8 -1 -3 31.48 0.4
 7 -1 -3 6.02 0.24
 -8 -2 -3 50.96 0.53
 -7 -2 -3 26.99 0.35
 8 -3 -3 18.23 0.34
 7 -3 -3 138.99 1.05
 6 -3 -3 28.5 0.35
 -7 -4 -3 16.81 0.33
 -6 -4 -3 146.66 1.04
 6 -5 -3 40.07 0.45
 5 -5 -3 101.81 1.08
 -6 -6 -3 17.5 0.49
 4 -8 -2 0.31 2.55
 3 -8 -2 8.64 0.29
 2 -8 -2 15.46 0.31
 1 -8 -2 6.18 0.22
 0 -8 -2 8.09 0.3
 -5 -7 -2 0.98 0.25
 -4 -7 -2 18.01 0.33
 -3 -7 -2 14.39 0.3
 -2 -7 -2 1.64 0.11
 6 -6 -2 4.28 0.25
 5 -6 -2 15.54 0.31
 4 -6 -2 26.05 0.34
 -9 0 -1 -0.16 3
 -8 0 -1 22.57 0.38
 9 -1 -1 35.97 0.44
 8 -1 -1 9.57 0.28
 -9 -2 -1 2.3 0.12
 -8 -2 -1 65.02 0.58
 8 -3 -1 3.83 0.14
 7 -3 -1 106.25 0.76
 -8 -4 -1 29.01 0.4
 -7 -4 -1 13.41 0.29
 7 -5 -1 31.56 0.41
 6 -5 -1 8.52 0.27
 -7 -6 -1 21.88 0.37
 -6 -6 -1 27.03 0.54
 -2 -9 0 13.84 0.31
 -1 -9 0 35.63 0.43
 4 -8 0 41.21 0.47
 3 -8 0 11.19 0.3
 2 -8 0 46.36 0.47
 1 -8 0 14.9 0.3
 0 -8 0 170.54 1.35
 -6 -7 0 5.14 0.21
 -5 -7 0 57.77 0.56
 -4 -7 0 9.94 0.28
 -3 -7 0 13.68 0.29
 6 -6 0 84.35 1.03
 5 -6 0 41.33 0.43
 -2 -4 -8 18.46 0.36
 -1 -4 -8 100.31 0.99
 0 -4 -8 11.1 0.37
 3 -3 -8 55.81 0.89
 2 -3 -8 69.91 0.72
 1 -3 -8 4.7 0.18
 0 -3 -8 154.41 1.6
 -2 -2 -8 18.28 0.49
 -1 -2 -8 148.04 1.3
 0 -2 -8 0.45 2.01
 1 -1 -8 44.56 0.71
 0 -1 -8 60.89 0.71
 0 0 -8 146.13 2.51
 6 0 -7 0.32 3.23
 5 0 -7 63.06 0.75
 -6 -1 -7 108.18 1.05
 -5 -1 -7 30.09 0.42
 6 -2 -7 12.88 0.33
 5 -2 -7 101.54 0.96
 4 -2 -7 16.8 0.33
 -6 -3 -7 17.72 0.33
 -5 -3 -7 7.98 0.29
 -4 -3 -7 238.9 2.02
 -3 -3 -7 1.52 0.22
 5 -4 -7 50.54 0.6
 4 -4 -7 1.16 0.23
 3 -7 -6 13.48 0.34
 2 -7 -6 9.46 0.31
 1 -7 -6 10.12 0.3
 0 -7 -6 0.47 3.08
 -5 -6 -6 20.78 0.38
 -4 -6 -6 12.95 0.33
 -3 -6 -6 17.47 0.35
 -2 -6 -6 3.08 0.14
 -1 -6 -6 19.02 0.34
 0 -6 -6 19.4 0.4
 5 -5 -6 8.1 0.4
 4 -5 -6 15.7 0.33
 8 0 -5 8.95 0.34
 -8 -1 -5 19.58 0.35
 8 -2 -5 5.6 0.23
 7 -2 -5 8.58 0.29
 -8 -3 -5 5.16 0.21
 -7 -3 -5 6.44 0.27
 7 -4 -5 3.41 0.13
 6 -4 -5 8.64 0.3
 -7 -5 -5 0.76 0.19
 -6 -5 -5 15.23 0.33
 6 -6 -5 2.84 0.18
 3 -9 -4 10.47 0.33
 2 -9 -4 31.01 0.44
 1 -9 -4 16.53 0.35
 0 -9 -4 38.49 0.56
 -5 -8 -4 7.81 0.29
 -4 -8 -4 11.16 0.32
 -3 -8 -4 69.73 0.71
 -2 -8 -4 30.37 0.41
 -1 -8 -4 28.9 0.4
 0 -8 -4 27.14 0.45
 6 -7 -4 3.55 0.13
 5 -7 -4 14.17 0.33
 4 -7 -4 114.82 1.02
 -6 -6 -4 19.26 0.51
 10 0 -3 31.04 0.52
 9 0 -3 10.1 0.36
 -10 -1 -3 6.08 0.23
 -9 -1 -3 31.01 0.42
 9 -2 -3 18.94 0.35
 -9 -3 -3 11.33 0.32
 9 -4 -3 13.87 0.34
 8 -4 -3 29.27 0.42
 -8 -5 -3 21.89 0.39
 -7 -5 -3 28.3 0.41
 8 -6 -3 0.17 2.8
 7 -6 -3 21.31 0.38
 -7 -7 -3 0.02 3.87
 -2 -10 -2 0.85 0.28
 -1 -10 -2 2.03 0.13
 0 -10 -2 0.51 3.15
 5 -9 -2 9.71 0.31
 4 -9 -2 4.79 0.18
 3 -9 -2 1.91 0.12
 2 -9 -2 4.11 0.15
 1 -9 -2 6.35 0.23
 0 -9 -2 0.92 0.16
 -6 -8 -2 11.85 0.34
 -5 -8 -2 7.14 0.26
 7 -7 -2 13.73 0.48
 6 -7 -2 10.92 0.31
 10 0 -1 22.43 0.44
 -10 -1 -1 0.18 2.71
 10 -2 -1 10.56 0.32
 -10 -3 -1 8.66 0.31
 -9 -3 -1 16.18 0.34
 9 -4 -1 10.6 0.32
 -9 -5 -1 13.47 0.34
 -8 -5 -1 13.37 0.32
 8 -6 -1 14.89 0.35
 -8 -7 -1 5.54 0.25
 -7 -7 -1 12.83 0.46
 -3 -10 0 0.67 0.2
 -2 -10 0 33.43 0.46
 -1 -10 0 0.99 0.14
 0 -10 0 9.21 0.36
 5 -9 0 62.35 0.7
 4 -9 0 4.14 0.19
 3 -9 0 52.25 0.57
 -7 -8 0 1.43 0.16
 -6 -8 0 83.43 0.85
 -5 -8 0 9.78 0.31
 2 -4 -9 3.87 0.16
 1 -4 -9 18.52 0.37
 0 -4 -9 21.16 0.45
 -3 -3 -9 9.84 0.46
 -2 -3 -9 6.78 0.29
 -1 -3 -9 14.75 0.34
 0 -3 -9 42.27 0.63
 2 -2 -9 16.53 0.51
 1 -2 -9 32.81 0.46
 0 -2 -9 3.59 0.19
 -1 -1 -9 13.01 0.46
 0 -1 -9 -0.15 3.14
 0 0 -9 36.23 0.96
 -6 0 -8 23.34 0.47
 -5 0 -8 59.18 0.78
 6 -1 -8 32.8 0.48
 5 -1 -8 8.28 0.31
 -6 -2 -8 6 0.24
 -5 -2 -8 65.65 0.73
 6 -3 -8 43.03 0.57
 5 -3 -8 10.58 0.33
 4 -3 -8 30.16 0.44
 -5 -4 -8 35.89 0.5
 -4 -4 -8 29.53 0.62
 2 -8 -7 8.22 0.31
 1 -8 -7 34.99 0.5
 0 -8 -7 0.62 3.23
 -4 -7 -7 4.46 0.2
 -3 -7 -7 3.14 0.14
 -2 -7 -7 25.72 0.41
 -1 -7 -7 0.78 0.2
 0 -7 -7 118.72 1.38
 5 -6 -7 12.7 0.34
 4 -6 -7 9.1 0.31
 -5 -5 -7 24.16 0.57
 -9 0 -6 4.42 0.21
 -8 0 -6 5.01 0.23
 9 -1 -6 0.52 2.01
 8 -1 -6 7.76 0.31
 -9 -2 -6 8.2 0.31
 -8 -2 -6 2.56 0.13
 8 -3 -6 10.93 0.32
 -8 -4 -6 0.85 0.27
 -7 -4 -6 14.59 0.34
 7 -5 -6 0.09 1.94
 -7 -6 -6 3.2 0.15
 -6 -6 -6 0.37 2.28
 1 -10 -5 1.27 0.13
 0 -10 -5 0.66 3.27
 -4 -9 -5 10.32 0.33
 -3 -9 -5 1.15 0.13
 -2 -9 -5 7.8 0.31
 -1 -9 -5 2.56 0.13
 0 -9 -5 3.45 0.17
 6 -8 -5 10.14 0.32
 5 -8 -5 13.32 0.34
 4 -8 -5 0.21 2.76
 -7 -7 -5 11 0.48
 -6 -7 -5 18.52 0.38
 -10 0 -4 4.64 0.22
 10 -1 -4 26.87 0.43
 -10 -2 -4 7.6 0.29
 10 -3 -4 3.09 0.13
 -10 -4 -4 10.03 0.32
 -9 -4 -4 5.36 0.22
 9 -5 -4 15.81 0.37
 -8 -6 -4 19.63 0.39
 8 -7 -4 3.47 0.16
 7 -7 -4 19.17 0.56
 -2 -11 -3 5.03 0.22
 -1 -11 -3 9.54 0.32
 0 -11 -3 3.23 0.16
 5 -10 -3 4.77 0.2
 4 -10 -3 0.25 2.79
 3 -10 -3 8.44 0.3
 2 -10 -3 8.44 0.3
 -6 -9 -3 7.59 0.29
 -5 -9 -3 0.64 0.2
 7 -8 -3 7.76 0.31
 -11 0 -2 0.81 0.17
 11 -1 -2 0.27 1.97
 -11 -2 -2 0.3 2.02
 11 -3 -2 2.27 0.13
 10 -3 -2 3.19 0.13
 -10 -4 -2 4.97 0.19
 10 -5 -2 0.98 0.2
 -9 -6 -2 1.49 0.13
 9 -7 -2 0.54 2.02
 8 -7 -2 2.15 0.13
 -8 -8 -2 1.55 0.18
 -4 -11 -1 2.28 0.13
 -3 -11 -1 4.32 0.17
 -2 -11 -1 2.41 0.13
 -1 -11 -1 9.13 0.32
 0 -11 -1 -0.05 3.24
 6 -10 -1 6.97 0.28
 5 -10 -1 3.39 0.14
 4 -10 -1 6.05 0.24
 -7 -9 -1 8.95 0.32
 -6 -9 -1 4.14 0.18
 8 -8 -1 8.57 0.42
 11 -1 0 13.13 0.33
 -11 -2 0 1.17 0.16
 11 -3 0 27.65 0.45
 -11 -4 0 0.24 2.79
 -10 -4 0 50.44 0.7
 10 -5 0 0.59 0.16
 -10 -6 0 5.84 0.23
 -9 -6 0 1.75 0.14
 9 -7 0 8.03 0.29
 -8 -8 0 8.79 0.46
 -4 0 -10 4.19 0.23
 -3 0 -10 47.94 0.72
 -2 0 -10 10.65 0.38
 -1 0 -10 1.86 0.15
 0 0 -10 28.76 0.9
 4 -1 -10 17.97 0.38
 3 -1 -10 10.67 0.32
 2 -1 -10 11.92 0.33
 1 -1 -10 32.29 0.67
 -4 -2 -10 14.21 0.35
 -3 -2 -10 1.19 0.17
 -2 -2 -10 36.33 0.73
 3 -3 -10 14.91 0.49
 3 -6 -9 5.92 0.23
 2 -6 -9 2.51 0.13
 1 -6 -9 3.74 0.16
 0 -6 -9 2.65 0.15
 -4 -5 -9 4.56 0.16
 -3 -5 -9 1.79 0.13
 -2 -5 -9 13.49 0.34
 -1 -5 -9 5.89 0.22
 0 -5 -9 5.43 0.29
 4 -4 -9 4.5 0.22
 3 -4 -9 2.08 0.13
 -8 0 -8 6.57 0.32
 -7 0 -8 12.25 0.38
 8 -1 -8 16.43 0.37
 7 -1 -8 12.3 0.34
 -8 -2 -8 1.19 0.14
 -7 -2 -8 29.16 0.45
 7 -3 -8 1.82 0.13
 -7 -4 -8 30.22 0.48
 -6 -4 -8 1.58 0.13
 6 -5 -8 31.13 0.48
 5 -5 -8 2.5 0.19
 -3 -9 -7 0.26 2.01
 -2 -9 -7 11.75 0.34
 -1 -9 -7 3.22 0.15
 0 -9 -7 11.43 0.38
 5 -8 -7 23.41 0.42
 4 -8 -7 0.32 1.6
 3 -8 -7 8.01 0.31
 -6 -7 -7 35.22 0.52
 -5 -7 -7 0.08 2.83
 6 -6 -7 1.6 0.18
 -10 0 -6 1.84 0.15
 10 -1 -6 3.3 0.13
 -10 -2 -6 0.12 2.81
 10 -3 -6 1.06 0.2
 9 -3 -6 0.36 1.98
 -9 -4 -6 2.86 0.13
 9 -5 -6 3.77 0.15
 8 -5 -6 5.9 0.26
 -8 -6 -6 5.84 0.25
 7 -7 -6 8.71 0.46
 0 0 -2 1335.96 8.19
 -1 -1 0 9990.67 18.99

_iucr_refine_fcf_details
;
data_I
_computing_structure_refinement   'olex2.refine 1.5 (Bourhis et al., 2015)'
_shelx_refln_list_code            4
loop_
  _space_group_symop_id
  _space_group_symop_operation_xyz
  1  x,y,z
  2  y,-x,-z
  3  -y,x,-z
  4  x+1/2,-y+1/2,-z
  5  -x+1/2,y+1/2,-z
  6  -x,-y,z
  7  -y+1/2,-x+1/2,z
  8  y+1/2,x+1/2,z

_space_group_crystal_system       tetragonal
_space_group_IT_number            113
_space_group_name_H-M_alt         'P -4 21 m'
_space_group_name_Hall            ' P -4 2ab'
_symmetry_space_group_name_H-M    'P -4 21 m'
_symmetry_space_group_name_Hall   ' P -4 2ab'
_symmetry_Int_Tables_number       113
_cell_length_a                    5.5780(6)
_cell_length_b                    5.5780(6)
_cell_length_c                    4.6860(7)
_cell_angle_alpha                 90
_cell_angle_beta                  90
_cell_angle_gamma                 90
_cell_volume                      145.80(3)
loop_
  _refln_index_h
  _refln_index_k
  _refln_index_l
  _refln_F_squared_calc
  _refln_F_squared_meas
  _refln_F_squared_sigma
  _refln_F_squared_weight
  _refln_observed_status
0 0 1 10.239 13.032 0.048 1.256 o
0 0 2 108.102 130.830 0.802 0.014 o
0 0 3 11.840 13.226 0.078 1.044 o
0 0 4 38.706 28.946 0.174 0.146 o
0 0 5 43.803 47.614 0.353 0.090 o
0 0 6 16.572 15.330 0.182 0.607 o
0 0 7 0.345 0.259 0.025 134.536 o
0 0 8 14.817 14.310 0.246 0.675 o
0 0 9 3.504 3.548 0.094 6.956 o
0 0 10 2.679 2.816 0.088 9.654 o
0 0 11 0.076 0.071 0.251 4.908 o
0 0 12 3.816 3.697 0.103 6.150 o
0 0 13 0.176 0.174 0.024 216.298 o
1 0 1 149.777 145.468 0.173 0.009 o
1 0 2 127.788 148.649 0.264 0.011 o
1 0 3 76.578 85.130 0.184 0.031 o
1 0 4 2.773 2.153 0.027 13.441 o
1 0 5 23.319 18.517 0.095 0.371 o
1 0 6 0.384 0.518 0.027 100.858 o
1 0 7 41.410 41.997 0.330 0.105 o
1 0 8 5.584 5.963 0.070 3.780 o
1 0 9 0.009 -0.015 0.307 3.280 o
1 0 10 0.188 0.182 0.015 268.884 o
1 0 11 1.510 1.392 0.039 26.163 o
1 0 12 1.214 1.223 0.037 32.812 o
1 0 13 0.053 0.005 0.301 3.425 o
1 1 0 1020.310 978.379 1.860 0.000 o
1 1 1 263.380 275.045 0.497 0.003 o
1 1 2 45.455 51.355 0.116 0.084 o
1 1 3 10.638 11.261 0.054 1.319 o
1 1 4 45.596 42.192 0.178 0.095 o
1 1 5 16.545 16.501 0.109 0.608 o
1 1 6 2.966 2.883 0.032 10.967 o
1 1 7 5.625 5.533 0.072 3.881 o
1 1 8 4.442 4.364 0.070 5.560 o
1 1 9 1.191 1.274 0.045 30.678 o
1 1 10 3.138 3.162 0.066 8.997 o
1 1 11 1.562 1.601 0.050 22.475 o
1 1 12 2.353 2.399 0.058 13.355 o
1 1 13 0.251 0.224 0.018 199.932 o
2 0 0 135.293 151.306 0.291 0.010 o
2 0 1 178.723 191.841 0.255 0.006 o
2 0 2 8.934 8.057 0.032 1.978 o
2 0 3 49.181 48.194 0.128 0.079 o
2 0 4 19.472 19.547 0.082 0.454 o
2 0 5 0.594 0.547 0.025 79.242 o
2 0 6 1.304 1.426 0.023 32.034 o
2 0 7 0.206 0.262 0.013 236.668 o
2 0 8 0.055 0.044 0.197 7.955 o
2 0 9 0.423 0.352 0.019 124.475 o
2 0 10 1.040 1.043 0.037 38.749 o
2 0 11 4.296 4.216 0.066 5.896 o
2 0 12 0.934 1.035 0.035 42.577 o
2 0 13 0.002 -0.026 0.293 3.618 o
2 1 0 212.034 220.170 0.274 0.004 o
2 1 1 46.134 48.106 0.073 0.086 o
2 1 2 26.312 29.339 0.070 0.242 o
2 1 3 66.933 66.615 0.151 0.043 o
2 1 4 46.551 44.005 0.140 0.090 o
2 1 5 13.398 13.189 0.071 0.909 o
2 1 6 13.005 13.517 0.087 0.921 o
2 1 7 10.154 10.480 0.084 1.425 o
2 1 8 14.711 14.497 0.127 0.748 o
2 1 9 3.224 3.213 0.045 9.321 o
2 1 10 1.234 1.167 0.032 34.217 o
2 1 11 1.943 1.853 0.038 19.173 o
2 1 12 0.407 0.407 0.020 120.504 o
2 1 13 0.201 0.206 0.012 266.018 o
2 2 0 235.478 220.642 0.404 0.004 o
2 2 1 182.543 193.918 0.382 0.006 o
2 2 2 49.386 53.164 0.154 0.074 o
2 2 3 26.997 26.725 0.112 0.248 o
2 2 4 44.150 42.179 0.207 0.098 o
2 2 5 10.095 9.496 0.081 1.520 o
2 2 6 2.495 2.681 0.047 12.701 o
2 2 7 9.884 9.797 0.115 1.483 o
2 2 8 1.897 1.790 0.048 18.824 o
2 2 9 1.638 1.619 0.050 21.619 o
2 2 10 3.665 3.558 0.071 7.281 o
2 2 11 2.787 2.700 0.062 10.843 o
2 2 12 1.684 1.700 0.049 20.935 o
3 0 1 88.855 90.642 0.169 0.024 o
3 0 2 15.017 17.305 0.056 0.674 o
3 0 3 11.528 11.277 0.053 1.201 o
3 0 4 104.308 101.839 0.367 0.018 o
3 0 5 0.227 0.358 0.017 184.735 o
3 0 6 9.523 10.565 0.086 1.521 o
3 0 7 0.407 0.486 0.023 108.487 o
3 0 8 15.468 15.121 0.157 0.675 o
3 0 9 3.989 4.139 0.062 6.452 o
3 0 10 4.946 4.695 0.071 4.816 o
3 0 11 0.392 0.398 0.021 122.268 o
3 0 12 0.049 0.042 0.162 11.780 o
3 1 0 26.668 28.256 0.067 0.244 o
3 1 1 129.841 138.129 0.220 0.011 o
3 1 2 14.405 14.441 0.045 0.796 o
3 1 3 64.672 64.238 0.171 0.046 o
3 1 4 14.178 14.088 0.066 0.819 o
3 1 5 1.637 1.625 0.027 24.584 o
3 1 6 4.883 5.080 0.045 4.909 o
3 1 7 1.425 1.491 0.030 28.137 o
3 1 8 0.438 0.460 0.018 113.330 o
3 1 9 1.507 1.444 0.033 26.804 o
3 1 10 1.000 1.045 0.031 41.949 o
3 1 11 5.346 5.263 0.066 4.247 o
3 1 12 0.547 0.573 0.024 83.451 o
3 2 0 14.864 16.890 0.047 0.694 o
3 2 1 5.323 4.981 0.031 4.601 o
3 2 2 11.018 10.683 0.041 1.313 o
3 2 3 25.894 24.888 0.085 0.274 o
3 2 4 14.102 13.262 0.066 0.854 o
3 2 5 8.165 7.410 0.052 2.273 o
3 2 6 2.764 2.955 0.035 11.500 o
3 2 7 15.482 15.665 0.126 0.673 o
3 2 8 6.917 6.846 0.071 2.801 o
3 2 9 0.589 0.664 0.028 72.011 o
3 2 10 0.169 0.117 0.017 300.212 o
3 2 11 0.984 0.924 0.031 44.317 o
3 2 12 0.389 0.399 0.018 128.493 o
3 3 0 222.014 212.990 0.597 0.004 o
3 3 1 7.612 7.886 0.051 2.379 o
3 3 2 9.335 7.721 0.054 1.896 o
3 3 3 0.310 0.497 0.029 108.830 o
3 3 4 15.120 15.323 0.114 0.706 o
3 3 5 12.688 12.986 0.082 0.973 o
3 3 6 5.437 5.419 0.071 4.076 o
3 3 7 0.144 0.149 0.022 260.761 o
3 3 8 5.666 5.465 0.087 3.766 o
3 3 9 0.959 0.964 0.045 38.683 o
3 3 10 1.363 1.460 0.048 25.998 o
3 3 11 0.297 0.304 0.023 149.827 o
3 3 12 1.853 1.920 0.051 18.332 o
4 0 0 5.121 5.351 0.056 4.474 o
4 0 1 91.195 94.713 0.232 0.023 o
4 0 2 7.193 7.456 0.041 2.635 o
4 0 3 69.844 69.784 0.247 0.039 o
4 0 4 5.627 5.747 0.046 3.956 o
4 0 5 2.503 2.529 0.035 13.559 o
4 0 6 7.461 7.563 0.071 2.442 o
4 0 7 0.134 0.154 0.013 360.600 o
4 0 8 1.093 1.087 0.036 37.220 o
4 0 9 2.114 2.072 0.044 16.582 o
4 0 10 0.446 0.410 0.023 108.353 o
4 0 11 5.857 5.833 0.082 3.560 o
4 0 12 0.239 0.223 0.015 219.612 o
4 1 0 7.693 6.927 0.037 2.549 o
4 1 1 11.418 11.315 0.042 1.217 o
4 1 2 2.608 2.668 0.025 13.058 o
4 1 3 13.084 12.737 0.058 0.960 o
4 1 4 42.765 41.743 0.171 0.104 o
4 1 5 1.484 1.472 0.027 27.801 o
4 1 6 5.326 5.581 0.051 4.232 o
4 1 7 3.280 3.304 0.034 9.282 o
4 1 8 9.807 9.823 0.097 1.521 o
4 1 9 1.792 1.814 0.036 20.895 o
4 1 10 1.834 1.760 0.037 20.651 o
4 1 11 0.592 0.553 0.024 81.140 o
4 1 12 0.039 0.027 0.266 4.362 o
4 2 0 88.533 90.625 0.213 0.024 o
4 2 1 26.266 24.955 0.076 0.269 o
4 2 2 5.317 5.279 0.032 4.464 o
4 2 3 4.062 4.103 0.032 6.752 o
4 2 4 15.647 16.114 0.086 0.666 o
4 2 5 4.993 5.152 0.031 4.840 o
4 2 6 1.072 1.100 0.028 40.037 o
4 2 7 1.716 1.645 0.032 22.976 o
4 2 8 1.885 1.808 0.035 20.145 o
4 2 9 0.355 0.379 0.016 142.560 o
4 2 10 1.375 1.392 0.034 29.059 o
4 2 11 1.181 1.164 0.033 35.148 o
4 2 12 1.203 1.194 0.031 34.835 o
4 3 0 4.027 3.167 0.027 7.748 o
4 3 1 19.887 19.990 0.073 0.437 o
4 3 2 19.052 18.186 0.074 0.488 o
4 3 3 17.794 16.315 0.077 0.566 o
4 3 4 0.349 0.300 0.016 155.252 o
4 3 5 13.071 12.877 0.089 0.941 o
4 3 6 1.056 1.115 0.028 40.267 o
4 3 7 23.496 23.395 0.198 0.311 o
4 3 8 2.840 2.954 0.043 10.974 o
4 3 9 0.245 0.204 0.013 230.637 o
4 3 10 0.216 0.246 0.014 230.972 o
4 3 11 0.972 1.022 0.031 43.151 o
4 3 12 0.761 0.713 0.029 58.956 o
4 4 0 82.311 80.563 0.377 0.029 o
4 4 1 4.685 4.618 0.049 5.351 o
4 4 2 4.310 3.891 0.047 6.362 o
4 4 3 0.136 0.156 0.015 335.303 o
4 4 4 8.000 8.440 0.061 2.149 o
4 4 5 5.503 5.416 0.071 4.027 o
4 4 6 2.504 2.505 0.053 12.740 o
4 4 7 0.096 0.114 0.023 307.947 o
4 4 8 2.884 2.892 0.061 10.266 o
4 4 9 0.377 0.441 0.022 119.187 o
4 4 10 0.815 0.717 0.044 46.975 o
4 4 11 0.347 0.344 0.024 130.252 o
4 4 12 1.127 1.144 0.044 33.350 o
5 0 1 0.134 0.102 0.011 426.541 o
5 0 2 0.160 0.087 0.016 337.504 o
5 0 3 8.715 8.274 0.056 1.981 o
5 0 4 18.134 17.449 0.111 0.526 o
5 0 5 1.969 1.830 0.034 19.386 o
5 0 6 1.939 1.929 0.038 18.888 o
5 0 7 6.146 6.175 0.073 3.340 o
5 0 8 5.818 5.795 0.076 3.636 o
5 0 9 0.563 0.532 0.028 79.433 o
5 0 10 0.585 0.515 0.029 77.145 o
5 0 11 0.468 0.437 0.022 104.682 o
5 0 12 0.086 0.082 0.016 469.153 o
5 1 0 39.990 41.035 0.145 0.114 o
5 1 1 29.514 29.450 0.101 0.209 o
5 1 2 7.827 8.021 0.044 2.296 o
5 1 3 9.921 9.929 0.056 1.539 o
5 1 4 14.805 15.017 0.088 0.742 o
5 1 5 3.117 3.297 0.036 9.716 o
5 1 6 0.817 0.743 0.027 56.500 o
5 1 7 3.073 2.947 0.041 10.262 o
5 1 8 0.812 0.811 0.030 53.516 o
5 1 9 0.571 0.577 0.022 83.932 o
5 1 10 1.446 1.520 0.035 26.820 o
5 1 11 1.678 1.714 0.036 22.573 o
5 1 12 0.853 0.791 0.026 54.162 o
5 2 0 22.479 20.804 0.080 0.366 o
5 2 1 6.426 6.994 0.041 3.091 o
5 2 2 8.402 7.202 0.043 2.244 o
5 2 3 21.202 20.735 0.100 0.393 o
5 2 4 7.533 7.360 0.054 2.496 o
5 2 5 9.103 8.903 0.069 1.792 o
5 2 6 5.914 6.006 0.058 3.611 o
5 2 7 10.061 9.944 0.094 1.472 o
5 2 8 6.262 6.429 0.071 3.216 o
5 2 9 1.275 1.321 0.033 31.635 o
5 2 10 0.134 0.116 0.014 377.644 o
5 2 11 1.232 1.218 0.032 33.722 o
5 2 12 0.380 0.398 0.015 136.099 o
5 3 0 41.460 41.916 0.158 0.108 o
5 3 1 11.907 11.510 0.060 1.139 o
5 3 2 2.103 2.188 0.028 17.308 o
5 3 3 3.329 3.283 0.033 9.194 o
5 3 4 7.928 8.265 0.061 2.197 o
5 3 5 2.266 2.351 0.033 15.424 o
5 3 6 0.537 0.554 0.023 87.530 o
5 3 7 0.764 0.781 0.028 57.662 o
5 3 8 1.097 1.036 0.032 39.031 o
5 3 9 0.159 0.175 0.013 314.661 o
5 3 10 0.788 0.834 0.031 53.511 o
5 3 11 0.871 0.794 0.031 50.811 o
5 3 12 0.771 0.690 0.025 61.516 o
5 4 0 2.471 2.804 0.031 13.197 o
5 4 1 0.493 0.464 0.021 100.559 o
5 4 2 0.714 0.675 0.024 66.147 o
5 4 3 6.161 5.573 0.032 3.690 o
5 4 4 8.525 8.207 0.066 2.025 o
5 4 5 2.567 2.523 0.036 13.221 o
5 4 6 1.502 1.537 0.032 26.356 o
5 4 7 4.853 4.949 0.059 4.898 o
5 4 8 3.619 3.515 0.049 7.917 o
5 4 9 0.427 0.447 0.016 119.361 o
5 4 10 0.263 0.245 0.014 204.997 o
5 4 11 0.414 0.466 0.021 112.366 o
5 4 12 0.101 0.111 0.011 493.829 o
5 5 0 7.012 6.566 0.071 2.817 o
5 5 1 15.044 15.184 0.133 0.706 o
5 5 2 4.732 4.856 0.043 5.209 o
5 5 3 10.099 9.970 0.106 1.447 o
5 5 4 6.902 6.758 0.085 2.769 o
5 5 5 1.515 1.622 0.046 23.522 o
5 5 6 0.854 0.793 0.039 47.230 o
5 5 7 2.252 2.366 0.056 14.056 o
5 5 8 0.233 0.245 0.019 198.770 o
5 5 9 0.539 0.492 0.031 79.683 o
5 5 10 0.834 0.792 0.044 45.106 o
5 5 11 1.365 1.372 0.047 26.765 o
6 0 0 56.748 59.734 0.400 0.056 o
6 0 1 4.480 4.341 0.040 5.864 o
6 0 2 2.607 2.487 0.033 13.232 o
6 0 3 0.221 0.225 0.013 239.205 o
6 0 4 7.187 7.543 0.067 2.561 o
6 0 5 4.311 4.260 0.052 6.030 o
6 0 6 1.859 1.900 0.039 19.590 o
6 0 7 0.067 0.031 0.316 3.092 o
6 0 8 2.282 2.286 0.046 14.779 o
6 0 9 0.241 0.260 0.015 208.556 o
6 0 10 0.714 0.717 0.034 57.863 o
6 0 11 0.373 0.429 0.020 124.840 o
6 0 12 0.944 0.990 0.029 45.316 o
6 1 0 5.460 5.168 0.043 4.337 o
6 1 1 5.300 5.520 0.039 4.342 o
6 1 2 4.817 4.565 0.037 5.320 o
6 1 3 10.694 10.219 0.066 1.380 o
6 1 4 2.948 2.833 0.034 11.068 o
6 1 5 6.296 6.264 0.057 3.307 o
6 1 6 1.823 1.863 0.033 20.644 o
6 1 7 10.646 10.594 0.103 1.322 o
6 1 8 3.265 3.212 0.047 9.162 o
6 1 9 0.357 0.366 0.016 143.595 o
6 1 10 0.015 -0.008 0.273 4.153 o
6 1 11 0.688 0.703 0.029 63.326 o
6 1 12 0.322 0.308 0.013 169.598 o
6 2 0 22.662 22.778 0.105 0.341 o
6 2 1 13.574 13.362 0.073 0.887 o
6 2 2 2.728 2.764 0.031 12.141 o
6 2 3 6.113 6.025 0.039 3.553 o
6 2 4 7.340 7.354 0.060 2.556 o
6 2 5 1.405 1.506 0.030 28.327 o
6 2 6 0.343 0.302 0.014 161.423 o
6 2 7 1.324 1.261 0.032 31.477 o
6 2 8 0.507 0.588 0.024 87.843 o
6 2 9 0.263 0.246 0.013 208.655 o
6 2 10 0.773 0.815 0.031 54.627 o
6 2 11 1.105 1.142 0.032 37.471 o
6 2 12 0.553 0.535 0.025 83.640 o
6 3 0 0.064 0.042 0.221 6.298 o
6 3 1 0.939 0.860 0.024 49.863 o
6 3 2 0.719 0.891 0.024 59.415 o
6 3 3 2.926 2.791 0.034 11.227 o
6 3 4 15.181 14.762 0.108 0.721 o
6 3 5 0.372 0.317 0.014 150.238 o
6 3 6 1.789 1.711 0.034 21.630 o
6 3 7 1.714 1.735 0.032 22.508 o
6 3 8 4.034 4.214 0.056 6.418 o
6 3 9 0.635 0.580 0.023 77.070 o
6 3 10 0.766 0.759 0.031 56.293 o
6 3 11 0.233 0.219 0.013 233.045 o
6 4 0 2.419 2.398 0.032 14.456 o
6 4 1 12.835 13.087 0.060 0.965 o
6 4 2 2.644 2.551 0.033 12.908 o
6 4 3 14.171 14.362 0.102 0.797 o
6 4 4 3.522 3.343 0.041 8.481 o
6 4 5 0.921 0.846 0.029 48.770 o
6 4 6 1.331 1.268 0.032 31.293 o
6 4 7 0.873 0.891 0.030 49.313 o
6 4 8 0.178 0.155 0.013 304.530 o
6 4 9 0.600 0.606 0.027 74.277 o
6 4 10 0.403 0.384 0.018 127.144 o
6 4 11 1.734 1.666 0.035 22.341 o
6 5 0 3.878 4.047 0.042 7.008 o
6 5 1 0.878 0.834 0.026 52.108 o
6 5 2 1.516 1.522 0.030 26.546 o
6 5 3 4.151 3.924 0.044 6.623 o
6 5 4 9.106 9.055 0.081 1.756 o
6 5 5 1.527 1.491 0.032 26.331 o
6 5 6 1.968 2.035 0.037 18.313 o
6 5 7 1.202 1.244 0.033 33.838 o
6 5 8 3.047 3.049 0.047 10.015 o
6 5 9 0.671 0.737 0.029 63.298 o
6 5 10 0.490 0.476 0.023 97.600 o
6 5 11 0.281 0.270 0.013 193.877 o
6 6 0 8.952 8.260 0.101 1.841 o
6 6 1 2.706 2.647 0.053 11.635 o
6 6 2 0.433 0.419 0.024 106.254 o
6 6 3 1.695 1.714 0.048 20.899 o
6 6 4 1.833 1.886 0.050 18.730 o
6 6 5 0.324 0.278 0.018 161.116 o
6 6 6 0.060 0.036 0.223 6.191 o
6 6 7 0.115 0.157 0.018 326.095 o
6 6 8 0.236 0.223 0.019 202.533 o
6 6 9 0.007 0.049 0.382 2.125 o
6 6 10 0.215 0.195 0.018 226.888 o
6 6 11 0.375 0.363 0.027 113.557 o
7 0 1 7.913 8.278 0.066 2.190 o
7 0 2 5.003 4.989 0.035 4.893 o
7 0 3 5.672 5.110 0.053 4.131 o
7 0 4 0.189 0.175 0.013 284.329 o
7 0 5 5.839 6.104 0.070 3.566 o
7 0 6 0.024 0.046 0.302 3.404 o
7 0 7 11.466 11.626 0.135 1.121 o
7 0 8 1.253 1.200 0.037 32.282 o
7 0 9 0.022 0.051 0.312 3.174 o
7 0 10 0.081 0.092 0.021 371.036 o
7 0 11 0.426 0.466 0.024 103.843 o
7 1 0 29.902 30.559 0.173 0.198 o
7 1 1 3.119 3.096 0.034 10.057 o
7 1 2 1.456 1.403 0.020 29.798 o
7 1 3 0.559 0.590 0.024 82.559 o
7 1 4 4.184 4.469 0.046 6.131 o
7 1 5 2.005 2.003 0.033 18.445 o
7 1 6 0.879 0.991 0.029 47.627 o
7 1 7 0.046 0.076 0.020 473.344 o
7 1 8 1.208 1.205 0.033 34.123 o
7 1 9 0.086 0.099 0.013 511.896 o
7 1 10 0.436 0.399 0.021 114.230 o
7 1 11 0.339 0.348 0.014 155.550 o
7 2 0 0.163 0.268 0.009 287.090 o
7 2 1 0.019 0.014 0.166 11.291 o
7 2 2 0.105 0.161 0.011 427.362 o
7 2 3 2.738 2.643 0.034 12.259 o
7 2 4 8.246 8.089 0.070 2.112 o
7 2 5 0.836 0.840 0.028 52.838 o
7 2 6 0.983 0.926 0.030 44.695 o
7 2 7 2.436 2.519 0.040 13.689 o
7 2 8 2.748 2.856 0.044 11.452 o
7 2 9 0.308 0.271 0.015 176.405 o
7 2 10 0.343 0.376 0.015 148.096 o
7 2 11 0.220 0.215 0.012 247.894 o
7 3 0 1.343 1.340 0.028 31.142 o
7 3 1 10.327 10.405 0.074 1.414 o
7 3 2 1.425 1.409 0.029 28.943 o
7 3 3 13.617 13.611 0.103 0.862 o
7 3 4 1.867 1.784 0.033 20.603 o
7 3 5 0.704 0.631 0.026 66.824 o
7 3 6 1.351 1.320 0.033 30.257 o
7 3 7 0.290 0.307 0.014 179.229 o
7 3 8 0.182 0.178 0.013 289.319 o
7 3 9 0.561 0.560 0.025 81.665 o
7 3 10 0.209 0.260 0.013 236.057 o
7 3 11 1.613 1.584 0.033 24.457 o
7 4 0 0.836 0.973 0.027 50.481 o
7 4 1 1.408 1.313 0.028 30.209 o
7 4 2 1.617 1.764 0.032 23.439 o
7 4 3 1.663 1.646 0.032 23.586 o
7 4 4 11.523 11.244 0.100 1.171 o
7 4 5 0.325 0.334 0.013 164.297 o
7 4 6 1.485 1.429 0.033 27.244 o
7 4 7 0.435 0.437 0.020 112.940 o
7 4 8 2.805 2.959 0.047 10.948 o
7 4 9 0.599 0.531 0.024 80.523 o
7 4 10 0.723 0.754 0.029 59.881 o
7 4 11 0.131 0.138 0.012 387.050 o
7 5 0 5.755 5.657 0.055 3.853 o
7 5 1 3.101 3.091 0.040 9.977 o
7 5 2 0.039 0.096 0.024 352.722 o
7 5 3 2.705 2.771 0.040 11.927 o
7 5 4 1.426 1.388 0.032 28.622 o
7 5 5 0.058 0.074 0.019 473.308 o
7 5 6 0.003 0.009 0.190 8.589 o
7 5 7 0.019 0.008 0.277 4.035 o
7 5 8 0.082 0.085 0.016 476.360 o
7 5 9 0.032 0.035 0.268 4.299 o
7 5 10 0.155 0.152 0.013 332.590 o
7 5 11 0.484 0.465 0.022 100.498 o
7 6 0 0.590 0.503 0.021 86.664 o
7 6 1 2.202 2.143 0.036 16.318 o
7 6 2 1.136 1.069 0.030 38.157 o
7 6 3 2.181 2.087 0.037 16.578 o
7 6 4 0.324 0.348 0.013 162.359 o
7 6 5 1.805 1.814 0.037 20.666 o
7 6 6 0.336 0.313 0.015 159.632 o
7 6 7 3.416 3.449 0.051 8.398 o
7 6 8 0.694 0.689 0.030 62.610 o
7 6 9 0.040 -0.013 0.278 4.004 o
7 6 10 0.003 -0.032 0.265 4.404 o
7 7 1 1.215 1.256 0.045 30.417 o
7 7 2 1.370 1.345 0.047 26.882 o
7 7 3 0.020 0.002 0.379 2.159 o
7 7 4 1.906 1.877 0.055 17.670 o
7 7 5 1.169 1.077 0.047 32.252 o
7 7 6 0.776 0.853 0.045 45.393 o
7 7 7 0.250 0.277 0.020 180.269 o
7 7 8 0.693 0.681 0.038 56.768 o
7 7 9 0.148 0.162 0.018 289.581 o
7 7 10 0.200 0.203 0.017 239.158 o
8 0 0 17.013 16.701 0.132 0.578 o
8 0 1 2.221 2.210 0.037 15.916 o
8 0 2 0.805 0.792 0.029 54.819 o
8 0 3 0.699 0.773 0.031 59.312 o
8 0 4 2.562 2.658 0.044 12.599 o
8 0 5 0.968 0.876 0.033 44.820 o
8 0 6 0.425 0.491 0.023 105.543 o
8 0 7 0.030 0.061 0.316 3.094 o
8 0 8 0.657 0.643 0.031 65.395 o
8 0 9 0.027 0.008 0.320 3.022 o
8 0 10 0.271 0.243 0.015 198.154 o
8 0 11 0.283 0.283 0.015 184.004 o
8 1 0 1.337 1.459 0.029 30.018 o
8 1 1 0.939 0.937 0.027 47.200 o
8 1 2 0.614 0.605 0.022 78.615 o
8 1 3 3.239 3.083 0.039 9.606 o
8 1 4 2.698 2.830 0.039 11.871 o
8 1 5 1.869 1.917 0.034 19.876 o
8 1 6 0.700 0.760 0.030 60.301 o
8 1 7 3.389 3.427 0.049 8.532 o
8 1 8 1.650 1.609 0.036 23.474 o
8 1 9 0.162 0.211 0.013 292.890 o
8 1 10 0.059 0.019 0.275 4.085 o
8 1 11 0.254 0.270 0.013 206.750 o
8 2 0 4.581 4.540 0.046 5.551 o
8 2 1 6.251 6.367 0.057 3.304 o
8 2 2 1.427 1.514 0.030 27.929 o
8 2 3 4.875 4.990 0.052 4.912 o
8 2 4 2.955 2.974 0.040 10.633 o
8 2 5 0.482 0.548 0.023 94.115 o
8 2 6 0.259 0.251 0.013 209.345 o
8 2 7 0.725 0.805 0.030 57.794 o
8 2 8 0.089 0.117 0.014 462.076 o
8 2 9 0.203 0.187 0.013 266.715 o
8 2 10 0.344 0.376 0.016 145.939 o
8 2 11 0.737 0.763 0.028 59.530 o
8 3 0 1.025 1.096 0.029 41.127 o
8 3 1 0.427 0.375 0.014 129.497 o
8 3 2 0.790 0.846 0.028 54.788 o
8 3 3 1.749 1.785 0.033 21.766 o
8 3 4 6.924 6.829 0.070 2.806 o
8 3 5 0.500 0.505 0.021 96.942 o
8 3 6 1.028 1.070 0.031 40.768 o
8 3 7 0.736 0.784 0.030 57.743 o
8 3 8 2.018 2.027 0.039 17.802 o
8 3 9 0.371 0.360 0.016 140.956 o
8 3 10 0.392 0.391 0.018 128.606 o
8 3 11 0.137 0.140 0.012 376.959 o
8 4 0 3.970 4.036 0.046 6.805 o
8 4 1 2.966 2.841 0.039 10.853 o
8 4 2 0.008 0.030 0.250 4.969 o
8 4 3 2.887 2.866 0.041 11.026 o
8 4 4 1.144 1.093 0.031 37.400 o
8 4 5 0.017 0.021 0.270 4.241 o
8 4 6 0.032 0.083 0.026 331.228 o
8 4 7 0.021 0.031 0.157 12.576 o
8 4 8 0.037 0.049 0.016 699.445 o
8 4 9 0.057 0.049 0.194 8.194 o
8 4 10 0.123 0.164 0.012 380.667 o
8 5 0 1.107 0.958 0.030 40.445 o
8 5 1 1.210 1.309 0.031 33.466 o
8 5 2 0.766 0.699 0.025 61.592 o
8 5 3 2.172 2.144 0.038 16.383 o
8 5 4 0.796 0.765 0.028 56.442 o
8 5 5 1.339 1.304 0.033 30.606 o
8 5 6 0.571 0.578 0.025 79.953 o
8 5 7 2.286 2.293 0.041 15.044 o
8 5 8 0.850 0.859 0.031 50.363 o
8 5 9 0.085 0.082 0.016 473.079 o
8 5 10 0.007 0.021 0.256 4.745 o
8 6 0 7.944 8.170 0.083 2.157 o
8 6 1 1.590 1.458 0.034 25.418 o
8 6 2 1.205 1.160 0.033 34.654 o
8 6 3 0.037 0.017 0.274 4.118 o
8 6 4 1.941 1.922 0.038 18.899 o
8 6 5 0.930 0.993 0.031 44.959 o
8 6 6 0.557 0.572 0.024 82.501 o
8 6 7 0.332 0.306 0.016 159.436 o
8 6 8 0.529 0.541 0.024 88.022 o
8 6 9 0.125 0.125 0.014 384.309 o
8 6 10 0.206 0.237 0.018 219.801 o
8 7 0 0.104 0.140 0.016 378.521 o
8 7 1 0.608 0.543 0.024 79.231 o
8 7 2 0.227 0.211 0.013 240.096 o
8 7 3 0.742 0.760 0.030 58.084 o
8 7 4 0.350 0.340 0.016 149.213 o
8 7 5 0.605 0.632 0.027 72.925 o
8 7 6 0.124 0.142 0.017 335.922 o
8 7 7 1.242 1.226 0.034 32.965 o
8 7 8 0.337 0.350 0.015 153.788 o
8 7 9 0.009 -0.001 0.260 4.604 o
8 8 0 0.879 0.861 0.045 42.184 o
8 8 1 0.855 0.839 0.041 45.318 o
8 8 2 0.146 0.152 0.018 296.184 o
8 8 3 0.908 0.927 0.046 39.997 o
8 8 4 0.363 0.338 0.022 132.159 o
8 8 5 0.032 0.006 0.398 1.961 o
8 8 6 0.017 0.000 0.393 2.011 o
8 8 7 0.068 0.027 0.394 1.998 o
8 8 8 0.006 0.009 0.374 2.216 o
9 0 1 0.001 -0.016 0.294 3.594 o
9 0 2 0.062 0.090 0.016 521.642 o
9 0 3 1.058 0.989 0.035 39.688 o
9 0 4 3.624 3.769 0.055 7.531 o
9 0 5 0.374 0.338 0.017 140.830 o
9 0 6 0.424 0.433 0.021 113.371 o
9 0 7 1.131 1.119 0.037 35.658 o
9 0 8 1.233 1.297 0.039 31.274 o
9 0 9 0.127 0.115 0.017 351.093 o
9 0 10 0.162 0.188 0.014 296.685 o
9 1 0 3.567 3.489 0.042 8.189 o
9 1 1 3.512 3.523 0.043 8.257 o
9 1 2 0.575 0.622 0.023 80.462 o
9 1 3 2.889 3.037 0.041 10.721 o
9 1 4 1.653 1.619 0.034 23.635 o
9 1 5 0.209 0.251 0.013 238.446 o
9 1 6 0.096 0.051 0.197 7.926 o
9 1 7 0.312 0.315 0.015 167.173 o
9 1 8 0.059 0.032 0.284 3.835 o
9 1 9 0.097 0.069 0.014 502.631 o
9 1 10 0.188 0.194 0.013 276.948 o
9 2 0 1.340 1.355 0.030 30.711 o
9 2 1 0.228 0.225 0.012 238.804 o
9 2 2 0.420 0.402 0.015 126.582 o
9 2 3 1.899 1.855 0.034 19.891 o
9 2 4 2.955 3.037 0.043 10.442 o
9 2 5 0.842 0.764 0.030 53.250 o
9 2 6 0.702 0.803 0.030 59.058 o
9 2 7 1.143 1.151 0.033 36.171 o
9 2 8 1.263 1.211 0.034 32.705 o
9 2 9 0.205 0.218 0.013 252.888 o
9 2 10 0.130 0.107 0.014 390.760 o
9 3 0 4.858 5.117 0.056 4.833 o
9 3 1 1.587 1.584 0.033 24.771 o
9 3 2 0.174 0.187 0.012 299.429 o
9 3 3 1.115 1.110 0.031 37.902 o
9 3 4 1.042 1.025 0.032 40.665 o
9 3 5 0.140 0.113 0.013 382.326 o
9 3 6 0.028 0.035 0.194 8.219 o
9 3 7 0.040 0.025 0.197 7.971 o
9 3 8 0.128 0.122 0.014 382.140 o
9 3 9 0.005 0.019 0.267 4.337 o
9 3 10 0.116 0.085 0.016 404.847 o
9 4 0 0.454 0.405 0.019 113.878 o
9 4 1 0.984 1.038 0.031 42.531 o
9 4 2 0.471 0.469 0.018 107.394 o
9 4 3 1.408 1.358 0.033 28.984 o
9 4 4 0.549 0.525 0.022 88.955 o
9 4 5 1.007 1.011 0.032 41.906 o
9 4 6 0.275 0.280 0.013 194.441 o
9 4 7 1.926 1.975 0.039 18.720 o
9 4 8 0.584 0.603 0.025 77.684 o
9 4 9 0.035 0.049 0.267 4.329 o
9 4 10 0.003 -0.025 0.260 4.606 o
9 5 0 5.748 6.106 0.069 3.629 o
9 5 1 1.438 1.319 0.033 28.811 o
9 5 2 0.885 0.951 0.030 47.722 o
9 5 3 0.102 0.063 0.020 379.596 o
9 5 4 1.568 1.548 0.036 24.841 o
9 5 5 0.626 0.629 0.028 70.568 o
9 5 6 0.349 0.369 0.015 147.547 o
9 5 7 0.285 0.269 0.014 189.353 o
9 5 8 0.356 0.365 0.018 139.812 o
9 5 9 0.086 0.047 0.191 8.425 o
9 6 0 0.193 0.171 0.014 276.030 o
9 6 1 0.368 0.405 0.018 132.322 o
9 6 2 0.159 0.146 0.013 332.101 o
9 6 3 0.689 0.743 0.028 62.785 o
9 6 4 0.502 0.485 0.022 96.790 o
9 6 5 0.453 0.440 0.020 109.697 o
9 6 6 0.177 0.157 0.013 304.910 o
9 6 7 0.910 0.916 0.032 46.551 o
9 6 8 0.360 0.384 0.015 142.529 o
9 6 9 0.020 0.026 0.259 4.634 o
9 7 0 0.702 0.786 0.028 60.843 o
9 7 1 0.819 0.876 0.031 51.291 o
9 7 2 0.094 0.053 0.198 7.849 o
9 7 3 0.966 0.965 0.032 43.853 o
9 7 4 0.295 0.287 0.014 181.174 o
9 7 5 0.021 -0.040 0.283 3.870 o
9 7 6 0.021 0.037 0.272 4.178 o
9 7 7 0.042 0.033 0.274 4.116 o
9 7 8 0.002 0.011 0.265 4.403 o
9 8 0 0.525 0.559 0.024 87.461 o
9 8 1 0.188 0.163 0.013 290.968 o
9 8 2 0.362 0.390 0.017 137.397 o
9 8 3 0.445 0.373 0.020 116.541 o
9 8 4 1.344 1.383 0.036 29.273 o
9 8 5 0.203 0.193 0.013 264.400 o
9 8 6 0.266 0.278 0.014 195.587 o
9 8 7 0.039 0.032 0.190 8.553 o
9 8 8 0.375 0.362 0.017 137.603 o
9 9 0 0.117 0.109 0.018 354.215 o
9 9 1 0.552 0.638 0.036 67.471 o
9 9 2 0.184 0.156 0.019 253.282 o
9 9 3 0.668 0.765 0.043 52.206 o
9 9 4 0.195 0.214 0.018 232.608 o
9 9 5 0.069 0.057 0.392 2.018 o
9 9 6 0.047 0.062 0.218 6.470 o
9 9 7 0.077 0.069 0.369 2.270 o
10 0 0 0.922 0.902 0.035 45.044 o
10 0 1 2.181 2.197 0.043 15.825 o
10 0 2 0.076 0.050 0.308 3.249 o
10 0 3 2.980 3.040 0.051 10.107 o
10 0 4 0.493 0.454 0.022 99.884 o
10 0 5 0.057 0.065 0.320 3.017 o
10 0 6 0.151 0.180 0.015 303.718 o
10 0 7 0.007 0.000 0.319 3.043 o
10 0 8 0.005 0.040 0.307 3.278 o
10 0 9 0.104 0.098 0.021 335.073 o
10 0 10 0.049 0.091 0.499 1.242 o
10 1 0 0.109 0.097 0.014 440.528 o
10 1 1 0.037 0.018 0.265 4.395 o
10 1 2 0.173 0.199 0.013 288.132 o
10 1 3 0.586 0.595 0.023 80.668 o
10 1 4 2.595 2.631 0.042 12.601 o
10 1 5 0.171 0.124 0.013 330.061 o
10 1 6 0.325 0.323 0.013 166.137 o
10 1 7 0.475 0.489 0.022 100.033 o
10 1 8 0.801 0.868 0.031 52.220 o
10 1 9 0.106 0.070 0.016 439.173 o
10 1 10 0.141 0.172 0.017 300.642 o
10 2 0 3.210 3.274 0.045 9.276 o
10 2 1 1.063 1.034 0.031 40.280 o
10 2 2 0.099 0.083 0.027 255.768 o
10 2 3 0.792 0.827 0.029 54.627 o
10 2 4 0.681 0.744 0.028 63.239 o
10 2 5 0.077 0.056 0.016 528.235 o
10 2 6 0.018 0.012 0.275 4.092 o
10 2 7 0.020 0.018 0.274 4.121 o
10 2 8 0.084 0.082 0.014 521.514 o
10 2 9 0.004 -0.020 0.268 4.308 o
10 2 10 0.074 0.043 0.362 2.357 o
10 3 0 0.058 0.066 0.020 457.369 o
10 3 1 0.822 0.848 0.030 52.261 o
10 3 2 0.291 0.312 0.013 180.724 o
10 3 3 0.809 0.827 0.029 53.858 o
10 3 4 0.279 0.303 0.013 187.440 o
10 3 5 0.742 0.753 0.031 57.618 o
10 3 6 0.067 0.104 0.020 401.930 o
10 3 7 1.534 1.503 0.036 25.566 o
10 3 8 0.339 0.283 0.014 165.994 o
10 3 9 0.004 0.050 0.260 4.600 o
10 4 0 4.703 4.940 0.069 4.958 o
10 4 1 0.621 0.592 0.024 76.806 o
10 4 2 0.498 0.487 0.019 100.880 o
10 4 3 0.035 0.024 0.273 4.147 o
10 4 4 0.882 0.982 0.031 46.820 o
10 4 5 0.422 0.389 0.018 122.710 o
10 4 6 0.279 0.301 0.015 182.120 o
10 4 7 0.083 0.075 0.016 484.838 o
10 4 8 0.285 0.255 0.013 195.628 o
10 4 9 0.041 -0.018 0.189 8.652 o
10 5 0 0.078 0.058 0.016 522.196 o
10 5 1 0.298 0.332 0.014 171.604 o
10 5 2 0.096 0.096 0.020 363.076 o
10 5 3 0.488 0.467 0.020 102.467 o
10 5 4 0.378 0.368 0.016 138.176 o
10 5 5 0.357 0.354 0.017 143.269 o
10 5 6 0.100 0.086 0.020 364.248 o
10 5 7 0.752 0.760 0.030 57.591 o
10 5 8 0.269 0.260 0.014 198.660 o
10 5 9 0.010 0.005 0.252 4.895 o
10 6 0 0.580 0.572 0.023 82.330 o
10 6 1 0.681 0.683 0.027 65.883 o
10 6 2 0.053 0.027 0.198 7.884 o
10 6 3 0.834 0.834 0.031 51.541 o
10 6 4 0.228 0.225 0.013 234.397 o
10 6 5 0.012 -0.007 0.277 4.037 o
10 6 6 0.017 -0.002 0.277 4.036 o
10 6 7 0.023 0.026 0.191 8.480 o
10 6 8 0.001 -0.003 0.260 4.571 o
10 7 0 0.341 0.355 0.018 144.983 o
10 7 1 0.160 0.123 0.017 306.109 o
10 7 2 0.301 0.314 0.015 170.998 o
10 7 3 0.308 0.308 0.015 169.659 o
10 7 4 1.227 1.246 0.034 33.062 o
10 7 5 0.135 0.131 0.014 364.057 o
10 7 6 0.209 0.182 0.014 258.183 o
10 7 7 0.031 0.023 0.191 8.475 o
10 7 8 0.321 0.326 0.014 164.646 o
10 8 0 0.101 0.098 0.017 403.358 o
10 8 1 0.505 0.496 0.024 93.242 o
10 8 2 0.152 0.159 0.013 332.136 o
10 8 3 0.648 0.716 0.029 65.357 o
10 8 4 0.163 0.163 0.013 317.685 o
10 8 5 0.060 0.032 0.196 8.035 o
10 8 6 0.045 0.053 0.189 8.628 o
10 8 7 0.061 0.051 0.013 704.513 o
10 9 0 0.001 0.011 0.195 8.164 o
10 9 1 0.021 0.036 0.273 4.149 o
10 9 2 0.001 0.003 0.272 4.185 o
10 9 3 0.072 0.070 0.016 524.366 o
10 9 4 0.149 0.172 0.014 318.759 o
10 9 5 0.048 0.021 0.270 4.235 o
10 9 6 0.017 0.032 0.182 9.321 o
10 10 0 0.554 0.575 0.035 70.593 o
10 10 1 0.103 0.120 0.023 296.958 o
10 10 2 0.084 0.070 0.390 2.037 o
10 10 3 0.001 -0.018 0.386 2.084 o
10 10 4 0.127 0.130 0.018 327.660 o
10 10 5 0.061 0.054 0.367 2.295 o
11 0 1 0.019 -0.005 0.317 3.080 o
11 0 2 0.115 0.079 0.017 396.244 o
11 0 3 0.275 0.316 0.016 177.354 o
11 0 4 1.580 1.501 0.040 24.403 o
11 0 5 0.068 0.018 0.322 2.981 o
11 0 6 0.179 0.132 0.017 283.093 o
11 0 7 0.247 0.262 0.015 204.721 o
11 0 8 0.466 0.486 0.024 97.177 o
11 0 9 0.058 -0.015 0.304 3.359 o
11 1 0 1.158 1.286 0.032 34.576 o
11 1 1 0.879 0.894 0.031 48.530 o
11 1 2 0.014 0.026 0.193 8.315 o
11 1 3 0.921 0.934 0.031 46.285 o
11 1 4 0.354 0.364 0.014 148.621 o
11 1 5 0.007 0.024 0.273 4.152 o
11 1 6 0.007 0.026 0.271 4.212 o
11 1 7 0.012 0.039 0.270 4.241 o
11 1 8 0.013 0.034 0.267 4.334 o
11 1 9 0.022 0.050 0.256 4.737 o
11 2 0 0.102 0.115 0.016 403.911 o
11 2 1 0.239 0.236 0.013 224.522 o
11 2 2 0.074 0.029 0.198 7.870 o
11 2 3 0.480 0.493 0.022 99.085 o
11 2 4 0.442 0.404 0.022 111.083 o
11 2 5 0.331 0.362 0.015 153.519 o
11 2 6 0.095 0.099 0.016 431.705 o
11 2 7 0.690 0.718 0.030 62.054 o
11 2 8 0.285 0.275 0.014 187.913 o
11 2 9 0.014 0.034 0.253 4.852 o
11 3 0 2.744 2.708 0.044 11.748 o
11 3 1 0.395 0.423 0.017 126.561 o
11 3 2 0.239 0.222 0.013 228.635 o
11 3 3 0.070 0.088 0.016 504.627 o
11 3 4 0.505 0.523 0.027 86.518 o
11 3 5 0.195 0.176 0.013 278.169 o
11 3 6 0.131 0.149 0.013 367.503 o
11 3 7 0.035 0.033 0.275 4.088 o
11 3 8 0.149 0.112 0.014 358.275 o
11 4 0 0.010 0.024 0.273 4.152 o
11 4 1 0.239 0.223 0.013 228.431 o
11 4 2 0.054 0.040 0.160 12.061 o
11 4 3 0.310 0.311 0.014 170.882 o
11 4 4 0.235 0.265 0.013 218.436 o
11 4 5 0.268 0.249 0.014 201.521 o
11 4 6 0.039 0.053 0.196 8.043 o
11 4 7 0.577 0.523 0.025 81.902 o
11 4 8 0.175 0.147 0.014 304.628 o
11 5 0 0.610 0.610 0.027 73.389 o
11 5 1 0.455 0.502 0.021 103.284 o
11 5 2 0.051 0.073 0.276 4.053 o
11 5 3 0.481 0.505 0.024 95.493 o
11 5 4 0.202 0.218 0.013 255.381 o
11 5 5 0.010 -0.014 0.277 4.037 o
11 5 6 0.004 0.035 0.271 4.212 o
11 5 7 0.024 0.045 0.264 4.428 o
11 5 8 0.007 -0.024 0.258 4.675 o
11 6 0 0.230 0.247 0.014 222.260 o
11 6 1 0.077 0.083 0.014 541.271 o
11 6 2 0.181 0.200 0.013 280.306 o
11 6 3 0.227 0.229 0.013 234.077 o
11 6 4 0.843 0.851 0.032 50.277 o
11 6 5 0.097 0.093 0.016 433.775 o
11 6 6 0.142 0.157 0.013 347.401 o
11 6 7 0.043 0.041 0.186 8.908 o
11 7 0 0.100 0.120 0.016 401.482 o
11 7 1 0.393 0.397 0.019 126.103 o
11 7 2 0.100 0.088 0.014 470.506 o
11 7 3 0.519 0.500 0.024 90.097 o
11 7 4 0.119 0.121 0.013 410.756 o
11 7 5 0.040 0.080 0.019 511.992 o
11 7 6 0.031 0.057 0.260 4.593 o
11 7 7 0.039 0.060 0.254 4.805 o
11 8 0 0.000 0.002 0.273 4.155 o
11 8 1 0.016 -0.006 0.281 3.925 o
11 8 2 0.002 -0.023 0.277 4.039 o
11 8 3 0.062 0.065 0.020 449.958 o
11 8 4 0.145 0.157 0.014 333.015 o
11 8 5 0.039 0.055 0.186 8.905 o
11 8 6 0.017 0.030 0.254 4.814 o
11 9 0 0.497 0.517 0.024 92.845 o
11 9 1 0.100 0.095 0.014 463.034 o
11 9 2 0.075 0.060 0.020 429.309 o
11 9 3 0.001 -0.024 0.268 4.308 o
11 9 4 0.118 0.128 0.016 365.926 o
11 9 5 0.054 0.048 0.182 9.280 o
11 10 0 0.060 0.048 0.271 4.200 o
11 10 1 0.125 0.107 0.014 399.319 o
11 10 2 0.066 0.055 0.016 564.822 o
11 10 3 0.097 0.077 0.019 393.622 o
12 0 0 0.877 0.966 0.036 45.007 o
12 0 1 0.377 0.360 0.022 126.923 o
12 0 2 0.013 0.004 0.210 7.056 o
12 0 3 0.345 0.329 0.017 149.639 o
12 0 4 0.201 0.193 0.015 254.459 o
12 0 5 0.008 0.014 0.316 3.099 o
12 0 6 0.002 0.036 0.310 3.217 o
12 0 7 0.002 0.027 0.306 3.321 o
12 0 8 0.019 0.051 0.298 3.495 o
12 1 0 0.064 0.053 0.280 3.940 o
12 1 1 0.073 0.078 0.016 508.679 o
12 1 2 0.026 0.044 0.275 4.088 o
12 1 3 0.248 0.273 0.013 209.023 o
12 1 4 0.371 0.362 0.016 140.706 o
12 1 5 0.149 0.157 0.014 328.093 o
12 1 6 0.066 0.009 0.283 3.862 o
12 1 7 0.314 0.354 0.016 157.696 o
12 1 8 0.185 0.181 0.012 291.306 o
12 2 0 1.121 1.138 0.033 36.845 o
12 2 1 0.352 0.347 0.015 149.896 o
12 2 2 0.093 0.119 0.020 350.592 o
12 2 3 0.166 0.166 0.013 312.149 o
12 2 4 0.285 0.282 0.014 186.572 o
12 2 5 0.056 0.010 0.281 3.917 o
12 2 6 0.031 -0.004 0.276 4.062 o
12 2 7 0.031 0.045 0.267 4.330 o
12 2 8 0.047 0.062 0.015 663.858 o
12 3 0 0.017 0.033 0.275 4.091 o
12 3 1 0.085 0.087 0.014 511.523 o
12 3 2 0.015 0.029 0.193 8.314 o
12 3 3 0.184 0.172 0.013 290.310 o
12 3 4 0.242 0.265 0.014 210.355 o
12 3 5 0.131 0.139 0.016 340.837 o
12 3 6 0.040 0.069 0.019 530.804 o
12 3 7 0.291 0.279 0.015 181.590 o
12 4 0 0.452 0.453 0.016 114.225 o
12 4 1 0.287 0.279 0.015 183.314 o
12 4 2 0.024 0.013 0.278 4.005 o
12 4 3 0.300 0.310 0.015 172.060 o
12 4 4 0.132 0.139 0.013 374.076 o
12 4 5 0.005 0.000 0.272 4.185 o
12 4 6 0.001 -0.009 0.268 4.308 o
12 4 7 0.011 0.032 0.260 4.600 o
12 5 0 0.135 0.117 0.017 338.942 o
12 5 1 0.023 0.016 0.280 3.950 o
12 5 2 0.084 0.093 0.016 463.013 o
12 5 3 0.152 0.128 0.014 342.266 o
12 5 4 0.481 0.535 0.022 96.258 o
12 5 5 0.067 0.062 0.271 4.198 o
12 5 6 0.081 0.079 0.266 4.348 o
12 5 7 0.055 0.032 0.256 4.732 o
12 6 0 0.123 0.143 0.013 384.789 o
12 6 1 0.259 0.264 0.013 205.574 o
12 6 2 0.060 0.047 0.200 7.720 o
12 6 3 0.317 0.364 0.016 155.275 o
12 6 4 0.092 0.073 0.016 467.169 o
12 6 5 0.021 0.028 0.191 8.481 o
12 6 6 0.012 0.010 0.261 4.534 o
12 7 0 0.000 -0.006 0.274 4.126 o
12 7 1 0.014 0.009 0.195 8.156 o
12 7 2 0.001 -0.001 0.274 4.126 o
12 7 3 0.050 0.059 0.014 699.610 o
12 7 4 0.113 0.125 0.012 433.595 o
12 7 5 0.033 0.004 0.189 8.657 o
12 8 0 0.386 0.419 0.018 127.052 o
12 8 1 0.079 0.058 0.016 521.283 o
12 8 2 0.053 0.084 0.019 473.635 o
12 8 3 0.003 0.004 0.265 4.404 o
12 8 4 0.091 0.093 0.016 446.391 o
12 9 0 0.049 0.051 0.268 4.294 o
12 9 1 0.099 0.061 0.020 384.501 o
12 9 2 0.051 -0.005 0.268 4.299 o
12 9 3 0.080 0.067 0.019 433.596 o
13 0 1 0.079 0.079 0.022 364.356 o
13 0 2 0.008 0.028 0.207 7.254 o
13 0 3 0.113 0.116 0.017 369.195 o
13 0 4 0.121 0.106 0.015 393.383 o
13 0 5 0.099 0.092 0.017 413.439 o
13 0 6 0.013 0.004 0.308 3.258 o
13 0 7 0.217 0.196 0.015 241.973 o
13 1 0 0.619 0.652 0.028 70.244 o
13 1 1 0.150 0.149 0.013 341.462 o
13 1 2 0.033 0.002 0.279 3.977 o
13 1 3 0.089 0.094 0.014 490.148 o
13 1 4 0.125 0.124 0.013 398.283 o
13 1 5 0.021 0.011 0.191 8.488 o
13 1 6 0.015 0.007 0.188 8.760 o
13 1 7 0.005 0.027 0.252 4.893 o
13 2 0 0.011 0.007 0.276 4.065 o
13 2 1 0.032 0.022 0.276 4.060 o
13 2 2 0.006 0.003 0.272 4.184 o
13 2 3 0.097 0.089 0.016 438.292 o
13 2 4 0.176 0.156 0.015 290.706 o
13 2 5 0.064 0.023 0.277 4.026 o
13 2 6 0.026 0.053 0.260 4.595 o
13 3 0 0.244 0.230 0.014 219.007 o
13 3 1 0.177 0.185 0.013 290.574 o
13 3 2 0.003 -0.005 0.278 4.010 o
13 3 3 0.206 0.212 0.013 255.076 o
13 3 4 0.070 0.051 0.280 3.939 o
13 3 5 0.000 0.010 0.267 4.339 o
13 3 6 0.000 0.008 0.260 4.605 o
13 4 0 0.040 0.017 0.197 7.975 o
13 4 1 0.006 0.028 0.273 4.152 o
13 4 2 0.036 0.040 0.274 4.116 o
13 4 3 0.067 0.065 0.016 545.249 o
13 4 4 0.285 0.294 0.015 181.023 o
13 4 5 0.029 -0.024 0.315 3.117 o
13 4 6 0.039 0.047 0.181 9.394 o
13 5 0 0.110 0.121 0.014 413.386 o
13 5 1 0.151 0.161 0.013 332.768 o
13 5 2 0.026 -0.015 0.276 4.063 o
13 5 3 0.183 0.178 0.013 288.103 o
13 5 4 0.055 0.001 0.275 4.087 o
13 5 5 0.008 0.043 0.256 4.742 o
13 6 0 0.001 0.008 0.272 4.185 o
13 6 1 0.012 0.013 0.269 4.274 o
13 6 2 0.000 -0.001 0.268 4.309 o
13 6 3 0.036 0.056 0.265 4.392 o
13 6 4 0.077 0.081 0.016 494.988 o
13 6 5 0.026 -0.010 0.259 4.635 o
13 7 0 0.270 0.255 0.014 199.483 o
13 7 1 0.049 0.048 0.016 646.221 o
13 7 2 0.031 0.023 0.155 12.885 o
13 7 3 0.004 -0.001 0.184 9.149 o
13 7 4 0.057 0.040 0.259 4.624 o
13 8 0 0.029 0.014 0.263 4.463 o
13 8 1 0.066 0.056 0.016 563.019 o
13 8 2 0.031 0.051 0.253 4.846 o
14 0 0 0.334 0.324 0.016 156.129 o
14 0 1 0.060 0.013 0.324 2.946 o
14 0 2 0.018 0.008 0.205 7.393 o
14 0 3 0.035 -0.007 0.321 3.003 o
14 0 4 0.058 0.075 0.021 423.794 o
14 0 5 0.010 0.000 0.302 3.409 o
14 1 0 0.000 0.008 0.271 4.215 o
14 1 1 0.028 0.026 0.271 4.208 o
14 1 2 0.001 -0.046 0.279 3.982 o
14 1 3 0.048 0.022 0.270 4.236 o
14 1 4 0.071 0.056 0.272 4.167 o
14 1 5 0.040 0.022 0.263 4.460 o
14 2 0 0.165 0.169 0.013 310.888 o
14 2 1 0.086 0.095 0.016 455.618 o
14 2 2 0.003 -0.012 0.273 4.155 o
14 2 3 0.091 0.087 0.016 452.199 o
14 2 4 0.041 0.042 0.264 4.425 o
14 2 5 0.000 -0.017 0.259 4.641 o
14 3 0 0.009 0.013 0.272 4.183 o
14 3 1 0.001 0.003 0.269 4.277 o
14 3 2 0.013 0.024 0.268 4.304 o
14 3 3 0.031 0.035 0.267 4.331 o
14 3 4 0.145 0.106 0.019 309.953 o
14 3 5 0.014 -0.018 0.253 4.856 o
14 4 0 0.075 0.071 0.014 569.118 o
14 4 1 0.081 0.071 0.020 406.943 o
14 4 2 0.007 -0.011 0.267 4.339 o
14 4 3 0.104 0.107 0.016 407.622 o
14 4 4 0.028 -0.006 0.183 9.226 o
14 5 0 0.000 -0.029 0.270 4.246 o
14 5 1 0.007 -0.022 0.192 8.415 o
14 5 2 0.001 -0.004 0.264 4.437 o
14 5 3 0.022 0.038 0.259 4.632 o
14 6 0 0.159 0.163 0.012 329.581 o
14 6 1 0.030 -0.007 0.187 8.843 o
14 6 2 0.015 -0.004 0.259 4.638 o
15 0 1 0.011 -0.010 0.309 3.238 o
15 0 2 0.000 -0.043 0.307 3.302 o
15 0 3 0.021 0.042 0.294 3.589 o
15 1 0 0.101 0.073 0.269 4.251 o
15 1 1 0.037 0.032 0.186 8.917 o
15 1 2 0.004 0.025 0.258 4.673 o
15 1 3 0.035 0.029 0.182 9.306 o
15 2 0 0.004 0.021 0.264 4.434 o
15 2 1 0.002 -0.001 0.262 4.503 o
15 2 2 0.003 -0.009 0.263 4.470 o
15 3 0 0.054 0.059 0.259 4.623 o
15 3 1 0.038 -0.021 0.264 4.429 o
15 3 2 0.002 0.014 0.250 4.972 o
15 4 0 0.000 0.007 0.180 9.551 o
;
_iucr_refine_instructions_details
;
TITL I OLEX2: imported from CIF
CELL 0.71073 5.578 5.578 4.686 90 90 90
ZERR 2 0.0006 0.0006 0.0007 0 0 0
LATT -1
SYMM +Y,-X,-Z
SYMM -X,-Y,+Z
SYMM -Y,+X,-Z
SYMM 0.5+X,0.5-Y,-Z
SYMM 0.5-X,0.5+Y,-Z
SYMM 0.5-Y,0.5-X,+Z
SYMM 0.5+Y,0.5+X,+Z
SFAC C H N O
DISP C 0.0008 0.0008
DISP H 0 0
DISP N 0.0038 0.0023
DISP O 0.0044 0.003
UNIT 2 8 4 2
EQIV $1 +X,+Y,-1+Z
EQIV $2 +Y,1-X,1-Z

SIZE 0.23 0.13 0.09
TEMP -150(2)
CONF
HTAB N O_$1
HTAB N O_$2
MORE -1
BOND $H
ACTA
WGHT 0.039182 0.00476
FVAR 3.195537
REM <olex2.extras>
REM <HklSrc "%.\\I.hkl">
REM </olex2.extras>

O     4     10.00000  10.50000  0.59634  10.25000  0.01958  0.01958 =
 0.00665  10.00000 -10.00000  0.00164
N     3     0.14485  0.64485  0.17845  10.50000  0.02922  0.02922  0.00950 =
 0.00008  0.00008 -0.01547
Ha    2     0.13761  0.63761 -0.01864  10.50000  0.03450
Hb    2     0.24316  0.74316  0.27581  10.50000  0.03016
C     1     10.00000  10.50000  0.32821  10.25000  0.01519  0.01519 =
 0.00675  10.00000 -10.00000 -0.00035
HKLF 4

END
Q1 1 0 0.5 0.466667 11 0.05 0.43
Q2 1 0.15 0.65 0.133333 11 0.05 0.21
Q3 1 0.15 0.35 0.133333 11 0.05 0.13
Q4 1 0 0.5 0.866667 11 0.05 0.12
Q5 1 0.25 0.95 0.4 11 0.05 0.11

  REM The information below was added by Olex2.
  REM
  REM R1 = 0.0261 for 803 Fo > 4sig(Fo) and 0.0362 for all 1022 data
  REM 13 parameters refined using 0 restraints
  REM Highest difference peak 0.4345, deepest hole -0.2388
  REM Mean Shift 0.0000, Max Shift -0.0002.

  REM +++ Tabular Listing of Refinement Information +++
  REM R1_all = 0.0362
  REM R1_gt = 0.0261
  REM wR_ref = 0.0686
  REM GOOF = 0.8410
  REM Shift_max = -0.0002
  REM Shift_mean = 0.0000
  REM Reflections_all = 1022
  REM Reflections_gt = 803
  REM Parameters = 13
  REM Hole = -0.2388
  REM Peak = 0.4345
  REM Flack = n/a

  
;
_olex2_submission_special_instructions  'No special instructions were received'
